4
Lattice="3.4484999999999997 0.0 0.0 0.0 3.4484999999999997 0.0 0.0 0.0 3.4484999999999997" Properties=species:S:1:pos:R:3:REF_forces:R:3 ordering=0 split=train config_type=eos4 kind=ideal in_training=T name=000_eos4_0000_ideal REF_energy=0.2777440879769415 source=EMT-standin pbc="T T T"
Cu       0.00000000       0.00000000       0.00000000       0.00000000       0.00000000       0.00000000
Cu       0.00000000       1.72425000       1.72425000       0.00000000      -0.00000000      -0.00000000
Cu       1.72425000       0.00000000       1.72425000       0.00000000       0.00000000      -0.00000000
Cu       1.72425000       1.72425000       0.00000000       0.00000000      -0.00000000       0.00000000
4
Lattice="3.509 0.0 0.0 0.0 3.509 0.0 0.0 0.0 3.509" Properties=species:S:1:pos:R:3:REF_forces:R:3 ordering=0 split=train config_type=eos4 kind=ideal in_training=T name=001_eos4_0000_ideal REF_energy=0.06703832873012416 source=EMT-standin pbc="T T T"
Cu       0.00000000       0.00000000       0.00000000       0.00000000      -0.00000000      -0.00000000
Cu       0.00000000       1.75450000       1.75450000       0.00000000      -0.00000000      -0.00000000
Cu       1.75450000       0.00000000       1.75450000       0.00000000      -0.00000000      -0.00000000
Cu       1.75450000       1.75450000       0.00000000       0.00000000       0.00000000       0.00000000
4
Lattice="3.5694999999999997 0.0 0.0 0.0 3.5694999999999997 0.0 0.0 0.0 3.5694999999999997" Properties=species:S:1:pos:R:3:REF_forces:R:3 ordering=0 split=train config_type=eos4 kind=ideal in_training=T name=002_eos4_0000_ideal REF_energy=-0.02244137754809472 source=EMT-standin pbc="T T T"
Cu       0.00000000       0.00000000       0.00000000       0.00000000       0.00000000       0.00000000
Cu       0.00000000       1.78475000       1.78475000       0.00000000      -0.00000000      -0.00000000
Cu       1.78475000       0.00000000       1.78475000       0.00000000      -0.00000000      -0.00000000
Cu       1.78475000       1.78475000       0.00000000       0.00000000       0.00000000       0.00000000
4
Lattice="3.63 0.0 0.0 0.0 3.63 0.0 0.0 0.0 3.63" Properties=species:S:1:pos:R:3:REF_forces:R:3 ordering=0 split=train config_type=eos4 kind=ideal in_training=T name=003_eos4_0000_ideal REF_energy=-0.007033335616458913 source=EMT-standin pbc="T T T"
Cu       0.00000000       0.00000000       0.00000000       0.00000000       0.00000000       0.00000000
Cu       0.00000000       1.81500000       1.81500000      -0.00000000      -0.00000000      -0.00000000
Cu       1.81500000       0.00000000       1.81500000      -0.00000000       0.00000000      -0.00000000
Cu       1.81500000       1.81500000       0.00000000       0.00000000      -0.00000000       0.00000000
4
Lattice="3.6904999999999997 0.0 0.0 0.0 3.6904999999999997 0.0 0.0 0.0 3.6904999999999997" Properties=species:S:1:pos:R:3:REF_forces:R:3 ordering=0 split=train config_type=eos4 kind=ideal in_training=T name=004_eos4_0000_ideal REF_energy=0.09756587567239627 source=EMT-standin pbc="T T T"
Cu       0.00000000       0.00000000       0.00000000       0.00000000      -0.00000000      -0.00000000
Cu       0.00000000       1.84525000       1.84525000      -0.00000000       0.00000000       0.00000000
Cu       1.84525000       0.00000000       1.84525000       0.00000000      -0.00000000       0.00000000
Cu       1.84525000       1.84525000       0.00000000       0.00000000       0.00000000      -0.00000000
4
Lattice="3.7510000000000003 0.0 0.0 0.0 3.7510000000000003 0.0 0.0 0.0 3.7510000000000003" Properties=species:S:1:pos:R:3:REF_forces:R:3 ordering=0 split=train config_type=eos4 kind=ideal in_training=T name=005_eos4_0000_ideal REF_energy=0.2781185811972229 source=EMT-standin pbc="T T T"
Cu       0.00000000       0.00000000       0.00000000       0.00000000       0.00000000      -0.00000000
Cu       0.00000000       1.87550000       1.87550000      -0.00000000       0.00000000       0.00000000
Cu       1.87550000       0.00000000       1.87550000       0.00000000      -0.00000000       0.00000000
Cu       1.87550000       1.87550000       0.00000000       0.00000000       0.00000000      -0.00000000
4
Lattice="3.8115 0.0 0.0 0.0 3.8115 0.0 0.0 0.0 3.8115" Properties=species:S:1:pos:R:3:REF_forces:R:3 ordering=0 split=train config_type=eos4 kind=ideal in_training=T name=006_eos4_0000_ideal REF_energy=0.5231421221928976 source=EMT-standin pbc="T T T"
Cu       0.00000000       0.00000000       0.00000000      -0.00000000       0.00000000       0.00000000
Cu       0.00000000       1.90575000       1.90575000       0.00000000       0.00000000       0.00000000
Cu       1.90575000       0.00000000       1.90575000      -0.00000000      -0.00000000       0.00000000
Cu       1.90575000       1.90575000       0.00000000      -0.00000000       0.00000000       0.00000000
4
Lattice="3.5210999999999997 0.0 0.0 0.0 3.5210999999999997 0.0 0.0 0.0 3.5210999999999997" Properties=species:S:1:pos:R:3:REF_forces:R:3 ordering=0 split=train config_type=rattle4 kind=rattled in_training=T name=007_rattle4_0000_rattled REF_energy=0.22558336105264054 source=EMT-standin pbc="T T T"
Cu      -0.00418416       0.02640946       0.04945808       0.28133902      -0.49016000      -0.93748110
Cu      -0.03073507       1.79251511       1.72253981       0.54692866       0.34934279       0.37505143
Cu       1.84391824       0.08528857       1.72335022      -1.08385699      -1.09456167       0.37570914
Cu       1.71272433       1.70150390      -0.05913830       0.25558932       1.23537888       0.18672053
4
Lattice="3.5210999999999997 0.0 0.0 0.0 3.5210999999999997 0.0 0.0 0.0 3.5210999999999997" Properties=species:S:1:pos:R:3:REF_forces:R:3 ordering=0 split=train config_type=rattle4 kind=rattled in_training=T name=008_rattle4_0000_rattled REF_energy=0.1827117813863257 source=EMT-standin pbc="T T T"
Cu       0.11682172      -0.01033885       0.02183962      -0.52197282       0.18872553      -0.07375274
Cu      -0.08136934       1.77002043       1.74333520       1.50893785      -0.10649493       0.38449225
Cu       1.78919932       0.00919850       1.80462588      -0.15909973      -0.00181665      -0.25776525
Cu       1.85316134       1.76687855       0.01420192      -0.82786530      -0.08041395      -0.05297426
4
Lattice="3.5210999999999997 0.0 0.0 0.0 3.5210999999999997 0.0 0.0 0.0 3.5210999999999997" Properties=species:S:1:pos:R:3:REF_forces:R:3 ordering=0 split=train config_type=rattle4 kind=rattled in_training=T name=009_rattle4_0000_rattled REF_energy=0.6750166447554271 source=EMT-standin pbc="T T T"
Cu      -0.08671378      -0.25161957       0.01758033       1.72784631       2.90023545       0.12302929
Cu       0.01172838       1.69520414       1.77448741       0.08323029      -0.54094097      -0.34241180
Cu       1.62454739       0.01924184       1.78913456       0.97180401      -0.60986399      -0.39846811
Cu       1.92471905       1.74047564      -0.04023177      -2.78288061      -1.74943048       0.61785063
4
Lattice="3.5210999999999997 0.0 0.0 0.0 3.5210999999999997 0.0 0.0 0.0 3.5210999999999997" Properties=species:S:1:pos:R:3:REF_forces:R:3 ordering=0 split=train config_type=rattle4 kind=rattled in_training=T name=010_rattle4_0000_rattled REF_energy=0.8775807810568956 source=EMT-standin pbc="T T T"
Cu       0.21365545       0.08350747       0.09113273      -3.89463357      -0.85063603      -2.00473942
Cu       0.00029959       1.77713443       1.80536969      -1.07751576       0.27597792       0.02799562
Cu       1.57212319       0.00189004       1.70872978       3.81990403      -0.12218549       1.98645461
Cu       1.78263311       1.75174915      -0.00962893       1.15224530       0.69684360      -0.00971081
4
Lattice="3.63 0.0 0.0 0.0 3.63 0.0 0.0 0.0 3.63" Properties=species:S:1:pos:R:3:REF_forces:R:3 ordering=0 split=train config_type=rattle4 kind=rattled in_training=T name=011_rattle4_0000_rattled REF_energy=0.06821396433881688 source=EMT-standin pbc="T T T"
Cu       0.04876823      -0.06744008      -0.06268931      -0.21094728       0.72191740       0.65831926
Cu       0.05188969       1.85411538       1.83791386      -0.22203021      -0.54611377      -0.43820356
Cu       1.83597420       0.00258895       1.84212573       0.22095358       0.21701664      -0.43817469
Cu       1.83712314       1.83548999      -0.00277770       0.21202392      -0.39282028       0.21805900
4
Lattice="3.63 0.0 0.0 0.0 3.63 0.0 0.0 0.0 3.63" Properties=species:S:1:pos:R:3:REF_forces:R:3 ordering=0 split=train config_type=rattle4 kind=rattled in_training=T name=012_rattle4_0000_rattled REF_energy=0.0855861205787356 source=EMT-standin pbc="T T T"
Cu      -0.05041356      -0.01871154       0.06394807      -0.04759529      -0.00819414      -0.41763943
Cu       0.02023354       1.86952535       1.82035810      -0.54634090      -0.53226135      -0.05838871
Cu       1.77534014      -0.02433129       1.81725188       0.19719585       0.01758643      -0.04618532
Cu       1.74569139       1.71747329      -0.06884098       0.39674034       0.52286906       0.52221346
4
Lattice="3.63 0.0 0.0 0.0 3.63 0.0 0.0 0.0 3.63" Properties=species:S:1:pos:R:3:REF_forces:R:3 ordering=0 split=train config_type=rattle4 kind=rattled in_training=T name=013_rattle4_0000_rattled REF_energy=0.42870646719711303 source=EMT-standin pbc="T T T"
Cu       0.08453212       0.11138558      -0.09057725      -1.48419592       0.20799025       0.90533106
Cu       0.09234630       1.86767018       1.81132179      -1.44537758       0.39716985      -0.18204059
Cu       1.82722677       0.11699330       1.88910239       0.67634907      -0.00804719      -0.80737297
Cu       1.61443577       1.99847237       0.02379932       2.25322444      -0.59711292       0.08408251
4
Lattice="3.63 0.0 0.0 0.0 3.63 0.0 0.0 0.0 3.63" Properties=species:S:1:pos:R:3:REF_forces:R:3 ordering=0 split=train config_type=rattle4 kind=rattled in_training=T name=014_rattle4_0000_rattled REF_energy=0.26929619689552453 source=EMT-standin pbc="T T T"
Cu       0.01687475      -0.08396610      -0.05569318       0.65189318       0.51842884       0.50761396
Cu       0.01934070       1.77708638       1.78011956       0.58567348       0.16386640       0.58526640
Cu       2.02692488       0.03737655       1.86045925      -1.49110210      -0.33567070      -0.09009107
Cu       1.79699373       1.84429539       0.14863484       0.25353544      -0.34662454      -1.00278929
4
Lattice="3.7389 0.0 0.0 0.0 3.7389 0.0 0.0 0.0 3.7389" Properties=species:S:1:pos:R:3:REF_forces:R:3 ordering=0 split=train config_type=rattle4 kind=rattled in_training=T name=015_rattle4_0000_rattled REF_energy=0.32958981312120805 source=EMT-standin pbc="T T T"
Cu      -0.04002610      -0.01677331      -0.03910845       0.19708537      -0.11361271      -0.27086640
Cu       0.06834138       1.87863383       1.76805194      -0.33288639      -0.17308244       0.49212807
Cu       1.90391726      -0.04657504       1.76645475      -0.08975854      -0.00803014       0.48962624
Cu       1.84098293       1.77336327       0.05122295       0.22555956       0.29472529      -0.71088792
4
Lattice="3.7389 0.0 0.0 0.0 3.7389 0.0 0.0 0.0 3.7389" Properties=species:S:1:pos:R:3:REF_forces:R:3 ordering=0 split=train config_type=rattle4 kind=rattled in_training=T name=016_rattle4_0000_rattled REF_energy=0.34756354456328253 source=EMT-standin pbc="T T T"
Cu       0.06900358       0.00112377       0.09046809      -0.34566633       0.14831988      -0.66618024
Cu      -0.06529032       1.88660691       1.87998034       0.34538388      -0.12055595       0.09884233
Cu       1.82070703      -0.02337640       1.76618663       0.31731605       0.25694504       0.69767976
Cu       1.94327924       1.92280556      -0.01433080      -0.31703360      -0.28470898      -0.13034185
4
Lattice="3.7389 0.0 0.0 0.0 3.7389 0.0 0.0 0.0 3.7389" Properties=species:S:1:pos:R:3:REF_forces:R:3 ordering=0 split=train config_type=rattle4 kind=rattled in_training=T name=017_rattle4_0000_rattled REF_energy=0.7334333057773392 source=EMT-standin pbc="T T T"
Cu      -0.08088853      -0.05633070      -0.05157272       1.19205663       0.93381571      -0.41780589
Cu      -0.03607221       1.78687832       1.78262950       0.78961621       0.29469179       0.79730014
Cu       1.83303046       0.06066211       1.70483583      -0.16784817       0.09377401       0.95826957
Cu       2.08956539       2.04206248       0.11706149      -1.81382467      -1.32228151      -1.33776381
4
Lattice="3.7389 0.0 0.0 0.0 3.7389 0.0 0.0 0.0 3.7389" Properties=species:S:1:pos:R:3:REF_forces:R:3 ordering=0 split=train config_type=rattle4 kind=rattled in_training=T name=018_rattle4_0000_rattled REF_energy=0.9747809442592494 source=EMT-standin pbc="T T T"
Cu       0.19038881      -0.03523334      -0.04419608      -1.45284837       0.26860229      -1.06448507
Cu       0.21038980       2.00247249       1.67283647      -2.04614319      -1.21126590       1.47041522
Cu       1.77789080      -0.05600016       1.67996518       1.85016433       0.68683494       1.23806221
Cu       1.81198746       1.77220414       0.06674858       1.64882723       0.25582867      -1.64399236
4
Lattice="3.574375 0.0 0.0 0.0 3.574375 0.0 0.0 0.0 3.574375" Properties=species:S:1:pos:R:3:REF_forces:R:3 ordering=1 split=train config_type=eos4 kind=ideal in_training=T name=019_eos4_0001_ideal REF_energy=0.24150162116273766 source=EMT-standin pbc="T T T"
Cu       0.00000000       0.00000000       0.00000000      -0.00000000      -0.00000000      -0.00000000
Cu       0.00000000       1.78718750       1.78718750       0.00000000       0.00000000       0.00000000
Cu       1.78718750       0.00000000       1.78718750       0.00000000       0.00000000       0.00000000
Au       1.78718750       1.78718750       0.00000000       0.00000000       0.00000000      -0.00000000
4
Lattice="3.6370833333333334 0.0 0.0 0.0 3.6370833333333334 0.0 0.0 0.0 3.6370833333333334" Properties=species:S:1:pos:R:3:REF_forces:R:3 ordering=1 split=train config_type=eos4 kind=ideal in_training=T name=020_eos4_0001_ideal REF_energy=0.018879444271097334 source=EMT-standin pbc="T T T"
Cu       0.00000000       0.00000000       0.00000000       0.00000003       0.00000003       0.00000002
Cu       0.00000000       1.81854167       1.81854167       0.00000003      -0.00000002      -0.00000003
Cu       1.81854167       0.00000000       1.81854167      -0.00000002       0.00000003      -0.00000003
Au       1.81854167       1.81854167       0.00000000      -0.00000004      -0.00000004       0.00000004
4
Lattice="3.6997916666666666 0.0 0.0 0.0 3.6997916666666666 0.0 0.0 0.0 3.6997916666666666" Properties=species:S:1:pos:R:3:REF_forces:R:3 ordering=1 split=train config_type=eos4 kind=ideal in_training=T name=021_eos4_0001_ideal REF_energy=-0.060944552014896125 source=EMT-standin pbc="T T T"
Cu       0.00000000       0.00000000       0.00000000      -0.00000003      -0.00000003      -0.00000002
Cu       0.00000000       1.84989583       1.84989583      -0.00000003       0.00000002       0.00000003
Cu       1.84989583       0.00000000       1.84989583       0.00000002      -0.00000003       0.00000003
Au       1.84989583       1.84989583       0.00000000       0.00000003       0.00000003      -0.00000003
4
Lattice="3.7625 0.0 0.0 0.0 3.7625 0.0 0.0 0.0 3.7625" Properties=species:S:1:pos:R:3:REF_forces:R:3 ordering=1 split=train config_type=eos4 kind=ideal in_training=T name=022_eos4_0001_ideal REF_energy=-0.01925245762244021 source=EMT-standin pbc="T T T"
Cu       0.00000000       0.00000000       0.00000000      -0.00000000      -0.00000000      -0.00000000
Cu       0.00000000       1.88125000       1.88125000      -0.00000000       0.00000000       0.00000000
Cu       1.88125000       0.00000000       1.88125000      -0.00000000       0.00000000       0.00000000
Au       1.88125000       1.88125000       0.00000000      -0.00000000       0.00000000      -0.00000000
4
Lattice="3.8252083333333333 0.0 0.0 0.0 3.8252083333333333 0.0 0.0 0.0 3.8252083333333333" Properties=species:S:1:pos:R:3:REF_forces:R:3 ordering=1 split=train config_type=eos4 kind=ideal in_training=T name=023_eos4_0001_ideal REF_energy=0.12448318787398716 source=EMT-standin pbc="T T T"
Cu       0.00000000       0.00000000       0.00000000       0.00000001       0.00000001       0.00000001
Cu       0.00000000       1.91260417       1.91260417       0.00000001      -0.00000001      -0.00000001
Cu       1.91260417       0.00000000       1.91260417      -0.00000001       0.00000001      -0.00000001
Au       1.91260417       1.91260417       0.00000000      -0.00000002      -0.00000002       0.00000002
4
Lattice="3.8879166666666674 0.0 0.0 0.0 3.8879166666666674 0.0 0.0 0.0 3.8879166666666674" Properties=species:S:1:pos:R:3:REF_forces:R:3 ordering=1 split=train config_type=eos4 kind=ideal in_training=T name=024_eos4_0001_ideal REF_energy=0.3475562788305897 source=EMT-standin pbc="T T T"
Cu       0.00000000       0.00000000       0.00000000      -0.00000001      -0.00000001      -0.00000001
Cu       0.00000000       1.94395833       1.94395833      -0.00000001       0.00000001       0.00000001
Cu       1.94395833       0.00000000       1.94395833       0.00000001      -0.00000001       0.00000001
Au       1.94395833       1.94395833       0.00000000       0.00000001       0.00000001      -0.00000001
4
Lattice="3.9506250000000005 0.0 0.0 0.0 3.9506250000000005 0.0 0.0 0.0 3.9506250000000005" Properties=species:S:1:pos:R:3:REF_forces:R:3 ordering=1 split=train config_type=eos4 kind=ideal in_training=T name=025_eos4_0001_ideal REF_energy=0.6363425224935195 source=EMT-standin pbc="T T T"
Cu       0.00000000       0.00000000       0.00000000       0.00000000       0.00000000       0.00000000
Cu       0.00000000       1.97531250       1.97531250       0.00000000      -0.00000000      -0.00000000
Cu       1.97531250       0.00000000       1.97531250      -0.00000000       0.00000000      -0.00000000
Au       1.97531250       1.97531250       0.00000000      -0.00000000      -0.00000000       0.00000000
4
Lattice="3.649625 0.0 0.0 0.0 3.649625 0.0 0.0 0.0 3.649625" Properties=species:S:1:pos:R:3:REF_forces:R:3 ordering=1 split=train config_type=rattle4 kind=rattled in_training=T name=026_rattle4_0001_rattled REF_energy=0.18110885579911784 source=EMT-standin pbc="T T T"
Cu      -0.05001333       0.00503849      -0.03937017       0.25820057       0.33632558       0.39750145
Cu       0.11532602       1.82116559       1.83420282      -1.36079808      -0.15559332       0.18904078
Cu       1.88563567      -0.03717687       1.86394232      -0.11524460       0.72460725      -0.18632347
Au       1.75572521       1.88659229       0.05594981       1.21784211      -0.90533951      -0.40021876
4
Lattice="3.649625 0.0 0.0 0.0 3.649625 0.0 0.0 0.0 3.649625" Properties=species:S:1:pos:R:3:REF_forces:R:3 ordering=1 split=train config_type=rattle4 kind=rattled in_training=T name=027_rattle4_0001_rattled REF_energy=0.09366534388584125 source=EMT-standin pbc="T T T"
Cu       0.00726302      -0.01415545      -0.05183882      -0.68853548      -0.39443476       0.47067771
Cu      -0.05822510       1.84060472       1.83036472      -0.04523732      -0.28379906      -0.59760859
Cu       1.77817700      -0.05718427       1.84618172       0.17314565       0.01787191      -0.76078150
Au       1.75498159       1.73247444      -0.05764232       0.56062714       0.66036191       0.88771238
4
Lattice="3.649625 0.0 0.0 0.0 3.649625 0.0 0.0 0.0 3.649625" Properties=species:S:1:pos:R:3:REF_forces:R:3 ordering=1 split=train config_type=rattle4 kind=rattled in_training=T name=028_rattle4_0001_rattled REF_energy=0.281866902476815 source=EMT-standin pbc="T T T"
Cu       0.07220285       0.12215061      -0.00640704      -0.70839190      -0.21231573       0.17645910
Cu       0.20519052       1.81289448       1.82989677      -2.02940478       0.84608958      -0.10469212
Cu       1.83984341       0.10794768       1.85598941       0.98539531      -0.21785664      -0.33054732
Au       1.82343194       1.98579737      -0.00099181       1.75240137      -0.41591721       0.25878034
4
Lattice="3.649625 0.0 0.0 0.0 3.649625 0.0 0.0 0.0 3.649625" Properties=species:S:1:pos:R:3:REF_forces:R:3 ordering=1 split=train config_type=rattle4 kind=rattled in_training=T name=029_rattle4_0001_rattled REF_energy=0.21142363011556053 source=EMT-standin pbc="T T T"
Cu       0.12950430      -0.05854563      -0.02503468      -0.89838065       0.45393346      -0.60338830
Cu      -0.08487040       1.86871965       1.70090730       1.17854569      -0.47551295       0.89201139
Cu       1.77035526      -0.00974217       1.74058319       0.47008729       0.00456730       0.47269545
Au       1.91096887       1.78223582      -0.05197389      -0.75025234       0.01701219      -0.76131854
4
Lattice="3.7625 0.0 0.0 0.0 3.7625 0.0 0.0 0.0 3.7625" Properties=species:S:1:pos:R:3:REF_forces:R:3 ordering=1 split=train config_type=rattle4 kind=rattled in_training=T name=030_rattle4_0001_rattled REF_energy=0.1086965080945399 source=EMT-standin pbc="T T T"
Cu      -0.00662717       0.07776320      -0.03563024       0.16168532      -0.37311547       0.13135139
Cu       0.09272559       1.93763174       1.81560407      -0.45223686      -0.23291552       0.39675989
Cu       2.01555573      -0.08196824       1.93010059      -0.37643955       0.55515259      -0.34093553
Au       1.83461699       1.87087668       0.01234460       0.66699109       0.05087840      -0.18717575
4
Lattice="3.7625 0.0 0.0 0.0 3.7625 0.0 0.0 0.0 3.7625" Properties=species:S:1:pos:R:3:REF_forces:R:3 ordering=1 split=train config_type=rattle4 kind=rattled in_training=T name=031_rattle4_0001_rattled REF_energy=0.04169504932831014 source=EMT-standin pbc="T T T"
Cu      -0.02813102       0.04144367      -0.02929080       0.03125483       0.10838606       0.21837326
Cu       0.01827797       1.85256826       1.91614651      -0.23405042       0.30406463      -0.34987389
Cu       1.93532221       0.05647356       1.88663737      -0.23184973       0.01695855      -0.16916695
Au       1.81484761       1.99284123      -0.01924839       0.43464532      -0.42940925       0.30066758
4
Lattice="3.7625 0.0 0.0 0.0 3.7625 0.0 0.0 0.0 3.7625" Properties=species:S:1:pos:R:3:REF_forces:R:3 ordering=1 split=train config_type=rattle4 kind=rattled in_training=T name=032_rattle4_0001_rattled REF_energy=0.32845784674658507 source=EMT-standin pbc="T T T"
Cu       0.04624986      -0.09553644      -0.00408383      -0.17429712       0.08633028       0.41394665
Cu       0.00771098       1.74542822       2.03310396       0.20301506       0.47291745      -1.59174081
Cu       1.76471302       0.03754286       1.88859260       0.61764599      -0.77147505      -0.61020827
Au       1.97331917       1.83768761      -0.13790513      -0.64636393       0.21222733       1.78800242
4
Lattice="3.7625 0.0 0.0 0.0 3.7625 0.0 0.0 0.0 3.7625" Properties=species:S:1:pos:R:3:REF_forces:R:3 ordering=1 split=train config_type=rattle4 kind=rattled in_training=T name=033_rattle4_0001_rattled REF_energy=0.7614242140575724 source=EMT-standin pbc="T T T"
Cu      -0.08385540      -0.02647099       0.11114935       0.57812725      -0.76489001      -0.89905713
Cu      -0.23839308       1.82106349       1.74198784       2.10136668       0.78615272       2.07559525
Cu       1.86523934       0.11044766       1.84875114      -0.82812999      -2.00126293       1.34620899
Au       1.87838527       1.70383692       0.11371447      -1.85136395       1.98000022      -2.52274710
4
Lattice="3.8753750000000005 0.0 0.0 0.0 3.8753750000000005 0.0 0.0 0.0 3.8753750000000005" Properties=species:S:1:pos:R:3:REF_forces:R:3 ordering=1 split=train config_type=rattle4 kind=rattled in_training=T name=034_rattle4_0001_rattled REF_energy=0.3156369571760367 source=EMT-standin pbc="T T T"
Cu       0.09489319      -0.02412105      -0.01457517      -0.25573292       0.09056553      -0.04761473
Cu       0.00396253       1.90152562       1.87731486       0.04316421       0.08984754       0.12395252
Cu       1.94442611       0.02801440       1.92443745       0.09295231      -0.08208486      -0.02663444
Au       1.95419494       1.96330025      -0.02234036       0.11961640      -0.09832822      -0.04970335
4
Lattice="3.8753750000000005 0.0 0.0 0.0 3.8753750000000005 0.0 0.0 0.0 3.8753750000000005" Properties=species:S:1:pos:R:3:REF_forces:R:3 ordering=1 split=train config_type=rattle4 kind=rattled in_training=T name=035_rattle4_0001_rattled REF_energy=0.3498224749654133 source=EMT-standin pbc="T T T"
Cu       0.02445401      -0.03881116      -0.05625808      -0.01301766       0.25873440       0.13858953
Cu      -0.04043620       1.87774129       1.94439510       0.20847881       0.13591294      -0.19189791
Cu       1.97572620       0.01946303       1.94738919      -0.10873639       0.06423272      -0.21379725
Au       1.95489537       2.04431808      -0.06274446      -0.08672476      -0.45888007       0.26710564
4
Lattice="3.8753750000000005 0.0 0.0 0.0 3.8753750000000005 0.0 0.0 0.0 3.8753750000000005" Properties=species:S:1:pos:R:3:REF_forces:R:3 ordering=1 split=train config_type=rattle4 kind=rattled in_training=T name=036_rattle4_0001_rattled REF_energy=0.6278781052776337 source=EMT-standin pbc="T T T"
Cu      -0.11432785       0.15708764      -0.04649588       0.63713811      -1.21175999       0.09216428
Cu       0.03012672       1.78474427       1.88944583       0.04848655       0.74743558       0.02393456
Cu       2.06144192       0.09413656       1.94118492      -0.48330217      -0.90650265      -0.24444634
Au       1.89867849       1.77224914      -0.03996252      -0.20232249       1.37082706       0.12834750
4
Lattice="3.8753750000000005 0.0 0.0 0.0 3.8753750000000005 0.0 0.0 0.0 3.8753750000000005" Properties=species:S:1:pos:R:3:REF_forces:R:3 ordering=1 split=train config_type=rattle4 kind=rattled in_training=T name=037_rattle4_0001_rattled REF_energy=0.3762875566584176 source=EMT-standin pbc="T T T"
Cu      -0.06064497      -0.06533388       0.00640048       0.16476338       0.05690296       0.10220489
Cu       0.10087975       1.91090658       1.91701096      -0.41905303      -0.04271831       0.11167315
Cu       2.04776470      -0.02846651       2.03309839      -0.24525193      -0.05938710      -0.31524342
Au       1.83454110       1.87871527       0.00227124       0.49954157       0.04520245       0.10136538
4
Lattice="3.70025 0.0 0.0 0.0 3.70025 0.0 0.0 0.0 3.70025" Properties=species:S:1:pos:R:3:REF_forces:R:3 ordering=11 split=train config_type=eos4 kind=ideal in_training=T name=038_eos4_0011_ideal REF_energy=0.34335574091615406 source=EMT-standin pbc="T T T"
Cu       0.00000000       0.00000000       0.00000000       0.00000000       0.00000000      -0.00000000
Cu       0.00000000       1.85012500       1.85012500      -0.00000000      -0.00000000       0.00000000
Au       1.85012500       0.00000000       1.85012500      -0.00000000       0.00000000       0.00000000
Au       1.85012500       1.85012500       0.00000000      -0.00000000       0.00000000       0.00000000
4
Lattice="3.7651666666666666 0.0 0.0 0.0 3.7651666666666666 0.0 0.0 0.0 3.7651666666666666" Properties=species:S:1:pos:R:3:REF_forces:R:3 ordering=11 split=train config_type=eos4 kind=ideal in_training=T name=039_eos4_0011_ideal REF_energy=0.08156488472510759 source=EMT-standin pbc="T T T"
Cu       0.00000000       0.00000000       0.00000000      -0.00000003      -0.00000002      -0.00000002
Cu       0.00000000       1.88258333       1.88258333      -0.00000003       0.00000002       0.00000002
Au       1.88258333       0.00000000       1.88258333       0.00000003      -0.00000004       0.00000004
Au       1.88258333       1.88258333       0.00000000       0.00000003       0.00000004      -0.00000004
4
Lattice="3.830083333333333 0.0 0.0 0.0 3.830083333333333 0.0 0.0 0.0 3.830083333333333" Properties=species:S:1:pos:R:3:REF_forces:R:3 ordering=11 split=train config_type=eos4 kind=ideal in_training=T name=040_eos4_0011_ideal REF_energy=-0.0065202234606314136 source=EMT-standin pbc="T T T"
Cu       0.00000000       0.00000000       0.00000000       0.00000002       0.00000002       0.00000002
Cu       0.00000000       1.91504167       1.91504167       0.00000002      -0.00000002      -0.00000002
Au       1.91504167       0.00000000       1.91504167      -0.00000002       0.00000003      -0.00000003
Au       1.91504167       1.91504167       0.00000000      -0.00000002      -0.00000003       0.00000003
4
Lattice="3.895 0.0 0.0 0.0 3.895 0.0 0.0 0.0 3.895" Properties=species:S:1:pos:R:3:REF_forces:R:3 ordering=11 split=train config_type=eos4 kind=ideal in_training=T name=041_eos4_0011_ideal REF_energy=0.043978239426166965 source=EMT-standin pbc="T T T"
Cu       0.00000000       0.00000000       0.00000000       0.00000000      -0.00000000       0.00000000
Cu       0.00000000       1.94750000       1.94750000      -0.00000000      -0.00000000       0.00000000
Au       1.94750000       0.00000000       1.94750000       0.00000000       0.00000000       0.00000000
Au       1.94750000       1.94750000       0.00000000       0.00000000      -0.00000000      -0.00000000
4
Lattice="3.9599166666666665 0.0 0.0 0.0 3.9599166666666665 0.0 0.0 0.0 3.9599166666666665" Properties=species:S:1:pos:R:3:REF_forces:R:3 ordering=11 split=train config_type=eos4 kind=ideal in_training=T name=042_eos4_0011_ideal REF_energy=0.20961652817566456 source=EMT-standin pbc="T T T"
Cu       0.00000000       0.00000000       0.00000000      -0.00000001      -0.00000001      -0.00000001
Cu       0.00000000       1.97995833       1.97995833      -0.00000001       0.00000001       0.00000001
Au       1.97995833       0.00000000       1.97995833       0.00000001      -0.00000001       0.00000001
Au       1.97995833       1.97995833       0.00000000       0.00000001       0.00000001      -0.00000001
4
Lattice="4.0248333333333335 0.0 0.0 0.0 4.0248333333333335 0.0 0.0 0.0 4.0248333333333335" Properties=species:S:1:pos:R:3:REF_forces:R:3 ordering=11 split=train config_type=eos4 kind=ideal in_training=T name=043_eos4_0011_ideal REF_energy=0.470012852529444 source=EMT-standin pbc="T T T"
Cu       0.00000000       0.00000000       0.00000000       0.00000000       0.00000000       0.00000000
Cu       0.00000000       2.01241667       2.01241667       0.00000000      -0.00000000      -0.00000000
Au       2.01241667       0.00000000       2.01241667      -0.00000000       0.00000001      -0.00000001
Au       2.01241667       2.01241667       0.00000000      -0.00000000      -0.00000001       0.00000001
4
Lattice="4.08975 0.0 0.0 0.0 4.08975 0.0 0.0 0.0 4.08975" Properties=species:S:1:pos:R:3:REF_forces:R:3 ordering=11 split=train config_type=eos4 kind=ideal in_training=T name=044_eos4_0011_ideal REF_energy=0.8063499536145651 source=EMT-standin pbc="T T T"
Cu       0.00000000       0.00000000       0.00000000      -0.00000000      -0.00000000       0.00000000
Cu       0.00000000       2.04487500       2.04487500      -0.00000000       0.00000000       0.00000000
Au       2.04487500       0.00000000       2.04487500      -0.00000000      -0.00000000       0.00000000
Au       2.04487500       2.04487500       0.00000000      -0.00000000      -0.00000000       0.00000000
4
Lattice="3.77815 0.0 0.0 0.0 3.77815 0.0 0.0 0.0 3.77815" Properties=species:S:1:pos:R:3:REF_forces:R:3 ordering=11 split=train config_type=rattle4 kind=rattled in_training=T name=045_rattle4_0011_rattled REF_energy=0.07816433856093674 source=EMT-standin pbc="T T T"
Cu      -0.01871004       0.01963293      -0.05601655       0.26983034      -0.06127545       0.33019993
Cu      -0.02773937       1.90658178       1.87155388       0.33571515      -0.07383145      -0.01238016
Au       1.92833211      -0.00268947       1.89892100      -0.44663376       0.12270469      -0.32478035
Au       1.87857542       1.89234559       0.00167399      -0.15891174       0.01240221       0.00696058
4
Lattice="3.77815 0.0 0.0 0.0 3.77815 0.0 0.0 0.0 3.77815" Properties=species:S:1:pos:R:3:REF_forces:R:3 ordering=11 split=train config_type=rattle4 kind=rattled in_training=T name=046_rattle4_0011_rattled REF_energy=0.11656031038157622 source=EMT-standin pbc="T T T"
Cu      -0.03251098      -0.01610648      -0.04926949       0.22942776       0.35949936       0.11302688
Cu      -0.00313609       1.95823198       1.87424391      -0.00589059      -0.40871717       0.20705108
Au       1.89708928       0.00839624       1.85726710      -0.17742826       0.44720112       0.62778513
Au       1.87353024       1.92082447       0.05471714      -0.04610891      -0.39798331      -0.94786309
4
Lattice="3.77815 0.0 0.0 0.0 3.77815 0.0 0.0 0.0 3.77815" Properties=species:S:1:pos:R:3:REF_forces:R:3 ordering=11 split=train config_type=rattle4 kind=rattled in_training=T name=047_rattle4_0011_rattled REF_energy=0.4517438919894481 source=EMT-standin pbc="T T T"
Cu       0.09690040      -0.03526117       0.07547301      -1.28121770       0.45628031      -0.02347390
Cu       0.04271337       1.68183977       2.02301966      -0.83431930       1.33580706      -0.37836647
Au       1.83269978       0.02926392       1.92452165       1.17115448      -0.01386343       0.29711304
Au       1.86032504       2.04065159       0.05436706       0.94438252      -1.77822393       0.10472733
4
Lattice="3.77815 0.0 0.0 0.0 3.77815 0.0 0.0 0.0 3.77815" Properties=species:S:1:pos:R:3:REF_forces:R:3 ordering=11 split=train config_type=rattle4 kind=rattled in_training=T name=048_rattle4_0011_rattled REF_energy=0.3024664924955509 source=EMT-standin pbc="T T T"
Cu       0.13516114      -0.04818801       0.14190176      -0.66707916       0.16052137      -1.01914338
Cu       0.07816988       1.75405773       1.87314837      -0.11295446       0.93344716       0.54660865
Au       2.01874433       0.04879226       1.85599540      -0.05752974      -0.76895558       1.19118992
Au       1.87320241       1.93291150       0.02793070       0.83756335      -0.32501296      -0.71865519
4
Lattice="3.895 0.0 0.0 0.0 3.895 0.0 0.0 0.0 3.895" Properties=species:S:1:pos:R:3:REF_forces:R:3 ordering=11 split=train config_type=rattle4 kind=rattled in_training=T name=049_rattle4_0011_rattled REF_energy=0.07958048260863748 source=EMT-standin pbc="T T T"
Cu      -0.02215978      -0.04401275       0.02455726       0.01413953       0.09567184       0.16810410
Cu       0.02487632       1.93568312       1.97287196      -0.20710832      -0.16292133       0.02930381
Au       1.95678630      -0.07236179       2.04960939      -0.01250778       0.37581775      -0.44412079
Au       1.89517516       1.93215381       0.03821980       0.20547658      -0.30856826       0.24671288
4
Lattice="3.895 0.0 0.0 0.0 3.895 0.0 0.0 0.0 3.895" Properties=species:S:1:pos:R:3:REF_forces:R:3 ordering=11 split=train config_type=rattle4 kind=rattled in_training=T name=050_rattle4_0011_rattled REF_energy=0.09706593875648473 source=EMT-standin pbc="T T T"
Cu       0.09045514      -0.03071783       0.01628811      -0.52025186      -0.04815575      -0.11561915
Cu       0.04334619       1.92458763       1.97853711      -0.29768055      -0.02042827      -0.19278162
Au       1.93885063      -0.02861503       1.90653855       0.34183408      -0.09293207       0.11559628
Au       1.90405051       1.89393552      -0.04549935       0.47609832       0.16151608       0.19280449
4
Lattice="3.895 0.0 0.0 0.0 3.895 0.0 0.0 0.0 3.895" Properties=species:S:1:pos:R:3:REF_forces:R:3 ordering=11 split=train config_type=rattle4 kind=rattled in_training=T name=051_rattle4_0011_rattled REF_energy=0.1668895328471809 source=EMT-standin pbc="T T T"
Cu      -0.08047034       0.11760344       0.14219196       0.33018881      -0.37324455      -0.37764008
Cu      -0.02898950       2.09191712       1.90274656       0.04537758      -0.46529052       0.41712782
Au       1.91441014      -0.04682732       2.01200904      -0.10430371       0.37071251       0.13144275
Au       1.94668475       1.88817467       0.05447641      -0.27126268       0.46782255      -0.17093049
4
Lattice="3.895 0.0 0.0 0.0 3.895 0.0 0.0 0.0 3.895" Properties=species:S:1:pos:R:3:REF_forces:R:3 ordering=11 split=train config_type=rattle4 kind=rattled in_training=T name=052_rattle4_0011_rattled REF_energy=0.21918012587671143 source=EMT-standin pbc="T T T"
Cu      -0.00357288       0.03366233       0.05224036       0.20652545       0.13037346      -0.38305413
Cu       0.06493599       2.05764411       2.00235487      -0.13717910      -0.35724936       0.09416143
Au       1.95557045      -0.01288787       1.83078007       0.06321909       0.66289624       1.40575284
Au       2.01775993       2.00013673       0.09674852      -0.13256544      -0.43602034      -1.11686015
4
Lattice="4.01185 0.0 0.0 0.0 4.01185 0.0 0.0 0.0 4.01185" Properties=species:S:1:pos:R:3:REF_forces:R:3 ordering=11 split=train config_type=rattle4 kind=rattled in_training=T name=053_rattle4_0011_rattled REF_energy=0.4286246424961613 source=EMT-standin pbc="T T T"
Cu       0.03365154       0.02072124       0.06188146      -0.13427016      -0.03530655      -0.11549450
Cu      -0.04309995       1.98521464       1.93815899       0.02635947       0.05936849       0.10852678
Au       1.92477782       0.02361493       2.01941734       0.13934021      -0.06808106      -0.02167645
Au       2.01008119       2.00588035      -0.01897126      -0.03142951       0.04401911       0.02864417
4
Lattice="4.01185 0.0 0.0 0.0 4.01185 0.0 0.0 0.0 4.01185" Properties=species:S:1:pos:R:3:REF_forces:R:3 ordering=11 split=train config_type=rattle4 kind=rattled in_training=T name=054_rattle4_0011_rattled REF_energy=0.43555623966888835 source=EMT-standin pbc="T T T"
Cu       0.11831855      -0.00913371       0.01331035      -0.19518563       0.07234436      -0.02905156
Cu      -0.00498469       2.05364446       1.97980107       0.06428424       0.01632474       0.07252152
Au       2.01337611       0.10418269       1.99491078       0.07893395      -0.20048946       0.10638513
Au       2.02806641       2.02606121       0.04369501       0.05196745       0.11182036      -0.14985509
4
Lattice="4.01185 0.0 0.0 0.0 4.01185 0.0 0.0 0.0 4.01185" Properties=species:S:1:pos:R:3:REF_forces:R:3 ordering=11 split=train config_type=rattle4 kind=rattled in_training=T name=055_rattle4_0011_rattled REF_energy=0.625593509517337 source=EMT-standin pbc="T T T"
Cu      -0.00239269      -0.17664296       0.27167630       0.37445132       0.12986731      -0.80360025
Cu      -0.05388630       1.83628700       2.07636795       0.23230069       0.10863530       0.03850964
Au       2.08590733      -0.09237126       1.83776295      -0.44549071       0.11758994       1.19768880
Au       2.06222307       1.97625253       0.05413759      -0.16126130      -0.35609255      -0.43259820
4
Lattice="4.01185 0.0 0.0 0.0 4.01185 0.0 0.0 0.0 4.01185" Properties=species:S:1:pos:R:3:REF_forces:R:3 ordering=11 split=train config_type=rattle4 kind=rattled in_training=T name=056_rattle4_0011_rattled REF_energy=0.6600999901857261 source=EMT-standin pbc="T T T"
Cu       0.08063153      -0.07742656       0.15119074       0.07931953       0.03774949      -0.26197174
Cu       0.03911228       1.86458478       2.06412059       0.27307147       0.39677703       0.23109848
Au       2.12993714       0.13699151       1.92974394      -0.23346751      -1.13865543       1.24598041
Au       2.10848689       1.97429873       0.23686730      -0.11892348       0.70412890      -1.21510715
4
Lattice="3.8261249999999998 0.0 0.0 0.0 3.8261249999999998 0.0 0.0 0.0 3.8261249999999998" Properties=species:S:1:pos:R:3:REF_forces:R:3 ordering=111 split=train config_type=eos4 kind=ideal in_training=T name=057_eos4_0111_ideal REF_energy=0.36464206430663015 source=EMT-standin pbc="T T T"
Cu       0.00000000       0.00000000       0.00000000       0.00000000       0.00000000       0.00000000
Au       0.00000000       1.91306250       1.91306250       0.00000000      -0.00000000      -0.00000000
Au       1.91306250       0.00000000       1.91306250      -0.00000000       0.00000000      -0.00000000
Au       1.91306250       1.91306250       0.00000000      -0.00000000      -0.00000000       0.00000000
4
Lattice="3.89325 0.0 0.0 0.0 3.89325 0.0 0.0 0.0 3.89325" Properties=species:S:1:pos:R:3:REF_forces:R:3 ordering=111 split=train config_type=eos4 kind=ideal in_training=T name=058_eos4_0111_ideal REF_energy=0.09526276828648239 source=EMT-standin pbc="T T T"
Cu       0.00000000       0.00000000       0.00000000      -0.00000000       0.00000000       0.00000000
Au       0.00000000       1.94662500       1.94662500       0.00000000       0.00000000       0.00000000
Au       1.94662500       0.00000000       1.94662500      -0.00000000       0.00000000       0.00000000
Au       1.94662500       1.94662500       0.00000000      -0.00000000      -0.00000000       0.00000000
4
Lattice="3.9603749999999995 0.0 0.0 0.0 3.9603749999999995 0.0 0.0 0.0 3.9603749999999995" Properties=species:S:1:pos:R:3:REF_forces:R:3 ordering=111 split=train config_type=eos4 kind=ideal in_training=T name=059_eos4_0111_ideal REF_energy=0.021753955199204533 source=EMT-standin pbc="T T T"
Cu       0.00000000       0.00000000       0.00000000       0.00000000       0.00000000       0.00000000
Au       0.00000000       1.98018750       1.98018750       0.00000000      -0.00000000      -0.00000000
Au       1.98018750       0.00000000       1.98018750      -0.00000000       0.00000000      -0.00000000
Au       1.98018750       1.98018750       0.00000000       0.00000000      -0.00000000       0.00000000
4
Lattice="4.0275 0.0 0.0 0.0 4.0275 0.0 0.0 0.0 4.0275" Properties=species:S:1:pos:R:3:REF_forces:R:3 ordering=111 split=train config_type=eos4 kind=ideal in_training=T name=060_eos4_0111_ideal REF_energy=0.10930360832415165 source=EMT-standin pbc="T T T"
Cu       0.00000000       0.00000000       0.00000000       0.00000000       0.00000000       0.00000000
Au       0.00000000       2.01375000       2.01375000      -0.00000000      -0.00000000       0.00000000
Au       2.01375000       0.00000000       2.01375000      -0.00000000      -0.00000000       0.00000000
Au       2.01375000       2.01375000       0.00000000      -0.00000000      -0.00000000      -0.00000000
4
Lattice="4.094625 0.0 0.0 0.0 4.094625 0.0 0.0 0.0 4.094625" Properties=species:S:1:pos:R:3:REF_forces:R:3 ordering=111 split=train config_type=eos4 kind=ideal in_training=T name=061_eos4_0111_ideal REF_energy=0.32674581602393715 source=EMT-standin pbc="T T T"
Cu       0.00000000       0.00000000       0.00000000       0.00000000      -0.00000000      -0.00000000
Au       0.00000000       2.04731250       2.04731250       0.00000000       0.00000000       0.00000000
Au       2.04731250       0.00000000       2.04731250      -0.00000000       0.00000000       0.00000000
Au       2.04731250       2.04731250       0.00000000      -0.00000000      -0.00000000       0.00000000
4
Lattice="4.1617500000000005 0.0 0.0 0.0 4.1617500000000005 0.0 0.0 0.0 4.1617500000000005" Properties=species:S:1:pos:R:3:REF_forces:R:3 ordering=111 split=train config_type=eos4 kind=ideal in_training=T name=062_eos4_0111_ideal REF_energy=0.6473817881009722 source=EMT-standin pbc="T T T"
Cu       0.00000000       0.00000000       0.00000000      -0.00000000      -0.00000000      -0.00000000
Au       0.00000000       2.08087500       2.08087500       0.00000000       0.00000000       0.00000000
Au       2.08087500       0.00000000       2.08087500       0.00000000      -0.00000000       0.00000000
Au       2.08087500       2.08087500       0.00000000       0.00000000       0.00000000      -0.00000000
4
Lattice="4.228875 0.0 0.0 0.0 4.228875 0.0 0.0 0.0 4.228875" Properties=species:S:1:pos:R:3:REF_forces:R:3 ordering=111 split=train config_type=eos4 kind=ideal in_training=T name=063_eos4_0111_ideal REF_energy=1.0487057118976582 source=EMT-standin pbc="T T T"
Cu       0.00000000       0.00000000       0.00000000       0.00000000      -0.00000000      -0.00000000
Au       0.00000000       2.11443750       2.11443750      -0.00000000       0.00000000       0.00000000
Au       2.11443750       0.00000000       2.11443750      -0.00000000       0.00000000       0.00000000
Au       2.11443750       2.11443750       0.00000000       0.00000000       0.00000000       0.00000000
4
Lattice="3.906675 0.0 0.0 0.0 3.906675 0.0 0.0 0.0 3.906675" Properties=species:S:1:pos:R:3:REF_forces:R:3 ordering=111 split=train config_type=rattle4 kind=rattled in_training=T name=064_rattle4_0111_rattled REF_energy=0.13095301079446298 source=EMT-standin pbc="T T T"
Cu      -0.02429147       0.09131124      -0.05371405      -0.04914742      -0.33254682       0.38284397
Au       0.03627682       1.94530066       1.97434619      -0.71182461       0.34923541      -0.35663183
Au       1.93650144       0.01950960       1.98332244       0.27331480       0.01997870      -0.39019627
Au       1.90256688       2.00542506      -0.00937696       0.48765723      -0.03666729       0.36398413
4
Lattice="3.906675 0.0 0.0 0.0 3.906675 0.0 0.0 0.0 3.906675" Properties=species:S:1:pos:R:3:REF_forces:R:3 ordering=111 split=train config_type=rattle4 kind=rattled in_training=T name=065_rattle4_0111_rattled REF_energy=0.14592547311561166 source=EMT-standin pbc="T T T"
Cu      -0.02037250       0.01427859      -0.04733716       0.04531999      -0.10152674       0.19217427
Au       0.06295023       1.99848371       1.97977077      -0.76621966      -0.39484965      -0.07171165
Au       1.89923760      -0.02349182       1.91620535       0.64462760       0.18543005       0.31505136
Au       1.98617418       1.89260637       0.03784652       0.07627207       0.31094634      -0.43551398
4
Lattice="3.906675 0.0 0.0 0.0 3.906675 0.0 0.0 0.0 3.906675" Properties=species:S:1:pos:R:3:REF_forces:R:3 ordering=111 split=train config_type=rattle4 kind=rattled in_training=T name=066_rattle4_0111_rattled REF_energy=0.6287468129965044 source=EMT-standin pbc="T T T"
Cu      -0.02888953       0.13412287       0.12113295       0.35463356      -0.47864944      -0.10373575
Au      -0.00938646       2.08865961       2.13947845       0.58820439       0.30955624      -1.98680163
Au       1.99706221       0.14494291       1.95296611      -0.44953581      -1.41248967      -0.90119118
Au       1.97699658       1.88892424      -0.15172904      -0.49330214       1.58158287       2.99172856
4
Lattice="3.906675 0.0 0.0 0.0 3.906675 0.0 0.0 0.0 3.906675" Properties=species:S:1:pos:R:3:REF_forces:R:3 ordering=111 split=train config_type=rattle4 kind=rattled in_training=T name=067_rattle4_0111_rattled REF_energy=0.2616525905106579 source=EMT-standin pbc="T T T"
Cu      -0.07120626      -0.12991687       0.13679547       0.82079536       0.13620932      -0.31246813
Au       0.08626554       1.79044713       1.93097925       0.13459527       0.37492684       0.25187402
Au       2.01850364      -0.09311245       2.10234079      -0.27269834      -0.11395694      -0.86429180
Au       2.08406124       1.89721379      -0.02618281      -0.68269230      -0.39717922       0.92488591
4
Lattice="4.0275 0.0 0.0 0.0 4.0275 0.0 0.0 0.0 4.0275" Properties=species:S:1:pos:R:3:REF_forces:R:3 ordering=111 split=train config_type=rattle4 kind=rattled in_training=T name=068_rattle4_0111_rattled REF_energy=0.16056962398400554 source=EMT-standin pbc="T T T"
Cu      -0.05061195       0.06981009       0.00408523       0.03634312      -0.16730601      -0.09618440
Au       0.03635271       1.96552401       1.93405929      -0.37773582       0.35599240       0.11457063
Au       1.92729302       0.03854113       2.03361889       0.33687260      -0.21609863      -0.20755225
Au       2.02338237       2.05444650      -0.06877147       0.00452010       0.02741224       0.18916602
4
Lattice="4.0275 0.0 0.0 0.0 4.0275 0.0 0.0 0.0 4.0275" Properties=species:S:1:pos:R:3:REF_forces:R:3 ordering=111 split=train config_type=rattle4 kind=rattled in_training=T name=069_rattle4_0111_rattled REF_energy=0.15366720385570698 source=EMT-standin pbc="T T T"
Cu      -0.09077109      -0.04086246      -0.08413673       0.21134246       0.19184248       0.06480021
Au      -0.01103351       2.04094295       1.89472114       0.01755575      -0.19830593       0.20825177
Au       2.00751741      -0.03003717       2.01530368      -0.10550133       0.35239322      -0.20109546
Au       2.01117025       2.07969354      -0.04244132      -0.12339689      -0.34592977      -0.07195652
4
Lattice="4.0275 0.0 0.0 0.0 4.0275 0.0 0.0 0.0 4.0275" Properties=species:S:1:pos:R:3:REF_forces:R:3 ordering=111 split=train config_type=rattle4 kind=rattled in_training=T name=070_rattle4_0111_rattled REF_energy=0.2660085707455755 source=EMT-standin pbc="T T T"
Cu       0.10101941       0.08626196      -0.09820521      -0.11131026      -0.07745983       0.32278462
Au      -0.09500832       2.05480820       2.02549665       0.86325807      -0.28759846      -0.25706601
Au       2.13584718      -0.05405907       2.09370583      -0.62466351       0.71347852      -0.50931936
Au       2.00707216       2.09128014      -0.03657877      -0.12728429      -0.34842023       0.44360075
4
Lattice="4.0275 0.0 0.0 0.0 4.0275 0.0 0.0 0.0 4.0275" Properties=species:S:1:pos:R:3:REF_forces:R:3 ordering=111 split=train config_type=rattle4 kind=rattled in_training=T name=071_rattle4_0111_rattled REF_energy=0.15887687054831812 source=EMT-standin pbc="T T T"
Cu      -0.02729226       0.01486067       0.00664449       0.09148499       0.09988914       0.14424185
Au      -0.04167136       2.06292502       2.08639696       0.27593623      -0.10541016      -0.30027640
Au       2.06225819       0.02193907       2.09536056      -0.28914635       0.20428322      -0.34018071
Au       1.99696894       2.08999318      -0.02644503      -0.07827488      -0.19876221       0.49621525
4
Lattice="4.148325 0.0 0.0 0.0 4.148325 0.0 0.0 0.0 4.148325" Properties=species:S:1:pos:R:3:REF_forces:R:3 ordering=111 split=train config_type=rattle4 kind=rattled in_training=T name=072_rattle4_0111_rattled REF_energy=0.5803598105939392 source=EMT-standin pbc="T T T"
Cu       0.03954733      -0.02162524       0.03077757      -0.01987885       0.01600983       0.01025412
Au      -0.01400230       2.02034733       2.11054479       0.03231018       0.03988792       0.02135849
Au       2.05767910       0.03033987       2.15988605       0.02433196      -0.05169612      -0.02820335
Au       2.11871005       2.06454906       0.05352097      -0.03676329      -0.00420163      -0.00340926
4
Lattice="4.148325 0.0 0.0 0.0 4.148325 0.0 0.0 0.0 4.148325" Properties=species:S:1:pos:R:3:REF_forces:R:3 ordering=111 split=train config_type=rattle4 kind=rattled in_training=T name=073_rattle4_0111_rattled REF_energy=0.5909421594735287 source=EMT-standin pbc="T T T"
Cu      -0.01253662       0.09593747      -0.03405481       0.05333455      -0.05187004       0.04941337
Au       0.09453619       2.07222455       2.10753736      -0.04671028      -0.00450749      -0.00626549
Au       2.23722219      -0.01117598       2.09932998      -0.10266572       0.02814964      -0.00807474
Au       2.05979928       2.03727041       0.04583487       0.09604145       0.02822789      -0.03507315
4
Lattice="4.148325 0.0 0.0 0.0 4.148325 0.0 0.0 0.0 4.148325" Properties=species:S:1:pos:R:3:REF_forces:R:3 ordering=111 split=train config_type=rattle4 kind=rattled in_training=T name=074_rattle4_0111_rattled REF_energy=0.626354470110364 source=EMT-standin pbc="T T T"
Cu      -0.00011139      -0.03502944      -0.03007117      -0.03731596       0.04238104       0.05419906
Au      -0.01512190       2.03439977       2.14183822      -0.15103653       0.15390445      -0.02502149
Au       1.90875764       0.15188548       2.10457416       0.22031446      -0.43348592       0.01631639
Au       2.06763493       1.94887017       0.05065363      -0.03196197       0.23720043      -0.04549395
4
Lattice="4.148325 0.0 0.0 0.0 4.148325 0.0 0.0 0.0 4.148325" Properties=species:S:1:pos:R:3:REF_forces:R:3 ordering=111 split=train config_type=rattle4 kind=rattled in_training=T name=075_rattle4_0111_rattled REF_energy=0.6255742096217194 source=EMT-standin pbc="T T T"
Cu      -0.18638403       0.01219783       0.01264946       0.10079188      -0.09526148      -0.03854130
Au       0.04060678       1.96795209       1.93900856      -0.16616254      -0.00452919       0.11612202
Au       1.99400453      -0.21365640       2.11947218       0.06945990       0.28949986      -0.15983898
Au       2.05238609       2.08180487      -0.05176702      -0.00408925      -0.18970920       0.08225827
4
Lattice="3.952 0.0 0.0 0.0 3.952 0.0 0.0 0.0 3.952" Properties=species:S:1:pos:R:3:REF_forces:R:3 ordering=1111 split=train config_type=eos4 kind=ideal in_training=T name=076_eos4_1111_ideal REF_energy=0.2400459395795984 source=EMT-standin pbc="T T T"
Au       0.00000000       0.00000000       0.00000000      -0.00000000       0.00000000       0.00000000
Au       0.00000000       1.97600000       1.97600000       0.00000000       0.00000000       0.00000000
Au       1.97600000       0.00000000       1.97600000      -0.00000000      -0.00000000       0.00000000
Au       1.97600000       1.97600000       0.00000000      -0.00000000       0.00000000       0.00000000
4
Lattice="4.021333333333334 0.0 0.0 0.0 4.021333333333334 0.0 0.0 0.0 4.021333333333334" Properties=species:S:1:pos:R:3:REF_forces:R:3 ordering=1111 split=train config_type=eos4 kind=ideal in_training=T name=077_eos4_1111_ideal REF_energy=0.02440919438813438 source=EMT-standin pbc="T T T"
Au       0.00000000       0.00000000       0.00000000       0.00000002       0.00000002       0.00000002
Au       0.00000000       2.01066667       2.01066667       0.00000002      -0.00000002      -0.00000002
Au       2.01066667       0.00000000       2.01066667      -0.00000002       0.00000002      -0.00000002
Au       2.01066667       2.01066667       0.00000000      -0.00000002      -0.00000002       0.00000002
4
Lattice="4.0906666666666665 0.0 0.0 0.0 4.0906666666666665 0.0 0.0 0.0 4.0906666666666665" Properties=species:S:1:pos:R:3:REF_forces:R:3 ordering=1111 split=train config_type=eos4 kind=ideal in_training=T name=078_eos4_1111_ideal REF_energy=0.022175617525951097 source=EMT-standin pbc="T T T"
Au       0.00000000       0.00000000       0.00000000      -0.00000001      -0.00000001      -0.00000001
Au       0.00000000       2.04533333       2.04533333      -0.00000001       0.00000001       0.00000001
Au       2.04533333       0.00000000       2.04533333       0.00000001      -0.00000001       0.00000001
Au       2.04533333       2.04533333       0.00000000       0.00000001       0.00000001      -0.00000001
4
Lattice="4.16 0.0 0.0 0.0 4.16 0.0 0.0 0.0 4.16" Properties=species:S:1:pos:R:3:REF_forces:R:3 ordering=1111 split=train config_type=eos4 kind=ideal in_training=T name=079_eos4_1111_ideal REF_energy=0.1905615132125149 source=EMT-standin pbc="T T T"
Au       0.00000000       0.00000000       0.00000000      -0.00000000       0.00000000       0.00000000
Au       0.00000000       2.08000000       2.08000000      -0.00000000       0.00000000       0.00000000
Au       2.08000000       0.00000000       2.08000000      -0.00000000       0.00000000       0.00000000
Au       2.08000000       2.08000000       0.00000000       0.00000000      -0.00000000       0.00000000
4
Lattice="4.229333333333333 0.0 0.0 0.0 4.229333333333333 0.0 0.0 0.0 4.229333333333333" Properties=species:S:1:pos:R:3:REF_forces:R:3 ordering=1111 split=train config_type=eos4 kind=ideal in_training=T name=080_eos4_1111_ideal REF_energy=0.4936363364910932 source=EMT-standin pbc="T T T"
Au       0.00000000       0.00000000       0.00000000      -0.00000000      -0.00000000      -0.00000000
Au       0.00000000       2.11466667       2.11466667      -0.00000000       0.00000000       0.00000000
Au       2.11466667       0.00000000       2.11466667       0.00000000      -0.00000000       0.00000000
Au       2.11466667       2.11466667       0.00000000       0.00000000       0.00000000      -0.00000000
4
Lattice="4.2986666666666675 0.0 0.0 0.0 4.2986666666666675 0.0 0.0 0.0 4.2986666666666675" Properties=species:S:1:pos:R:3:REF_forces:R:3 ordering=1111 split=train config_type=eos4 kind=ideal in_training=T name=081_eos4_1111_ideal REF_energy=0.9022219354413545 source=EMT-standin pbc="T T T"
Au       0.00000000       0.00000000       0.00000000       0.00000000       0.00000000       0.00000000
Au       0.00000000       2.14933333       2.14933333       0.00000000      -0.00000000      -0.00000000
Au       2.14933333       0.00000000       2.14933333      -0.00000000       0.00000000      -0.00000000
Au       2.14933333       2.14933333       0.00000000      -0.00000000      -0.00000000       0.00000000
4
Lattice="4.368 0.0 0.0 0.0 4.368 0.0 0.0 0.0 4.368" Properties=species:S:1:pos:R:3:REF_forces:R:3 ordering=1111 split=train config_type=eos4 kind=ideal in_training=T name=082_eos4_1111_ideal REF_energy=1.39481461871044 source=EMT-standin pbc="T T T"
Au       0.00000000       0.00000000       0.00000000       0.00000000       0.00000000       0.00000000
Au       0.00000000       2.18400000       2.18400000       0.00000000      -0.00000000       0.00000000
Au       2.18400000       0.00000000       2.18400000       0.00000000       0.00000000       0.00000000
Au       2.18400000       2.18400000       0.00000000       0.00000000       0.00000000       0.00000000
4
Lattice="4.0352 0.0 0.0 0.0 4.0352 0.0 0.0 0.0 4.0352" Properties=species:S:1:pos:R:3:REF_forces:R:3 ordering=1111 split=train config_type=rattle4 kind=rattled in_training=T name=083_rattle4_1111_rattled REF_energy=0.07782566876673869 source=EMT-standin pbc="T T T"
Au      -0.01679880      -0.02424033       0.09051337       0.21059129      -0.03534313      -0.34793378
Au       0.04237082       1.95269707       2.02533387      -0.11442835      -0.09294241       0.48737217
Au       2.07208447      -0.13428340       2.07261379      -0.22605488       0.57500605       0.24110155
Au       2.00663319       2.01598379       0.09341332       0.12989195      -0.44672052      -0.38053995
4
Lattice="4.0352 0.0 0.0 0.0 4.0352 0.0 0.0 0.0 4.0352" Properties=species:S:1:pos:R:3:REF_forces:R:3 ordering=1111 split=train config_type=rattle4 kind=rattled in_training=T name=084_rattle4_1111_rattled REF_energy=0.0947913122104076 source=EMT-standin pbc="T T T"
Au       0.02375605      -0.00853152      -0.00966164      -0.24257794       0.15518812      -0.26479510
Au       0.03322150       2.05848374       2.01355350      -0.30252157      -0.39743076       0.19832067
Au       2.01946788      -0.04959190       1.91704716       0.17477245       0.40536544       0.73690787
Au       1.98166244       2.01028604       0.06003246       0.37032705      -0.16312281      -0.67043344
4
Lattice="4.0352 0.0 0.0 0.0 4.0352 0.0 0.0 0.0 4.0352" Properties=species:S:1:pos:R:3:REF_forces:R:3 ordering=1111 split=train config_type=rattle4 kind=rattled in_training=T name=085_rattle4_1111_rattled REF_energy=0.793699104916703 source=EMT-standin pbc="T T T"
Au      -0.09237864       0.02155640      -0.02267865       0.58090399      -0.31448754      -0.36143632
Au      -0.16444320       1.85096822       1.96246474       1.87016980       0.54577367       2.01327544
Au       1.88644201      -0.09880418       1.95970699      -0.21365784       0.91043716       1.60791148
Au       2.13163417       2.10929834       0.27726754      -2.23741595      -1.14172330      -3.25975061
4
Lattice="4.0352 0.0 0.0 0.0 4.0352 0.0 0.0 0.0 4.0352" Properties=species:S:1:pos:R:3:REF_forces:R:3 ordering=1111 split=train config_type=rattle4 kind=rattled in_training=T name=086_rattle4_1111_rattled REF_energy=0.5834195257757031 source=EMT-standin pbc="T T T"
Au       0.04017789      -0.22148216      -0.02801061       0.87562343       1.25472197      -0.64465088
Au       0.00268156       1.88377712       1.84837056       1.39626379      -0.37886323       1.90531919
Au       2.14506321      -0.10798519       1.97481313      -0.68510251       0.57409537       0.91580249
Au       2.18181534       2.05282961       0.16900750      -1.58678470      -1.44995410      -2.17647080
4
Lattice="4.16 0.0 0.0 0.0 4.16 0.0 0.0 0.0 4.16" Properties=species:S:1:pos:R:3:REF_forces:R:3 ordering=1111 split=train config_type=rattle4 kind=rattled in_training=T name=087_rattle4_1111_rattled REF_energy=0.23942252997175473 source=EMT-standin pbc="T T T"
Au      -0.01536856      -0.07948688      -0.05091379      -0.01170418       0.00705118       0.03477030
Au      -0.00644685       1.92151133       2.01094277      -0.04998839       0.14751716       0.21385584
Au       2.10312400      -0.09940568       2.05478090      -0.07358649       0.07929418       0.12722893
Au       2.01596567       2.08920679       0.11592898       0.13527906      -0.23386251      -0.37585507
4
Lattice="4.16 0.0 0.0 0.0 4.16 0.0 0.0 0.0 4.16" Properties=species:S:1:pos:R:3:REF_forces:R:3 ordering=1111 split=train config_type=rattle4 kind=rattled in_training=T name=088_rattle4_1111_rattled REF_energy=0.200326881158853 source=EMT-standin pbc="T T T"
Au      -0.02907543       0.01987929      -0.03903030       0.05046156      -0.10444419      -0.04408108
Au      -0.03850465       2.03132510       1.98594211       0.06948078       0.06734095       0.08430278
Au       2.05876795      -0.04833897       2.05489189      -0.01171173       0.04188216      -0.06317576
Au       2.10432961       2.06526458      -0.07031246      -0.10823061      -0.00477892       0.02295406
4
Lattice="4.16 0.0 0.0 0.0 4.16 0.0 0.0 0.0 4.16" Properties=species:S:1:pos:R:3:REF_forces:R:3 ordering=1111 split=train config_type=rattle4 kind=rattled in_training=T name=089_rattle4_1111_rattled REF_energy=0.44065060166308534 source=EMT-standin pbc="T T T"
Au      -0.17372882      -0.13593329      -0.08887300       0.70333468       0.96952173       0.67198486
Au       0.02857649       2.13862899       2.22105671      -0.01608274      -0.29327612      -0.75720007
Au       1.98889748       0.13634288       2.18770192       0.02824544      -0.19160753      -0.48367229
Au       2.16570724       2.17019368      -0.08854928      -0.71549738      -0.48463809       0.56888749
4
Lattice="4.16 0.0 0.0 0.0 4.16 0.0 0.0 0.0 4.16" Properties=species:S:1:pos:R:3:REF_forces:R:3 ordering=1111 split=train config_type=rattle4 kind=rattled in_training=T name=090_rattle4_1111_rattled REF_energy=0.2788905238351864 source=EMT-standin pbc="T T T"
Au       0.04277403       0.07878323      -0.02350914      -0.32398654      -0.60004451       0.22339200
Au      -0.00898918       1.91658183       2.13288294      -0.14439231       0.41615832      -0.16360350
Au       1.98485891      -0.07014905       2.11874514       0.24927400      -0.13851872      -0.07966788
Au       2.01841224       1.94929498       0.03428440       0.21910485       0.32240491       0.01987938
4
Lattice="4.284800000000001 0.0 0.0 0.0 4.284800000000001 0.0 0.0 0.0 4.284800000000001" Properties=species:S:1:pos:R:3:REF_forces:R:3 ordering=1111 split=train config_type=rattle4 kind=rattled in_training=T name=091_rattle4_1111_rattled REF_energy=0.8107032249290018 source=EMT-standin pbc="T T T"
Au      -0.01893265      -0.02274959       0.05490325      -0.00931324      -0.02574928       0.03350119
Au      -0.01450301       2.14407701       2.15560895      -0.00400419       0.02604761      -0.03237207
Au       2.07491851      -0.02910042       2.06755328       0.00504314      -0.02676507      -0.03326301
Au       2.18469453       2.13992402      -0.04741552       0.00827430       0.02646674       0.03213389
4
Lattice="4.284800000000001 0.0 0.0 0.0 4.284800000000001 0.0 0.0 0.0 4.284800000000001" Properties=species:S:1:pos:R:3:REF_forces:R:3 ordering=1111 split=train config_type=rattle4 kind=rattled in_training=T name=092_rattle4_1111_rattled REF_energy=0.8078195542639115 source=EMT-standin pbc="T T T"
Au      -0.07420074       0.03542173       0.04842807       0.01651488      -0.01460851       0.06811852
Au      -0.01645981       2.16808553       2.09820761       0.01990666       0.01483679      -0.06771801
Au       2.06204189      -0.00046843       2.13933073      -0.01972202      -0.01628993      -0.06732507
Au       2.09550858       2.18130263       0.03548662      -0.01669953       0.01606164       0.06692455
4
Lattice="4.284800000000001 0.0 0.0 0.0 4.284800000000001 0.0 0.0 0.0 4.284800000000001" Properties=species:S:1:pos:R:3:REF_forces:R:3 ordering=1111 split=train config_type=rattle4 kind=rattled in_training=T name=093_rattle4_1111_rattled REF_energy=0.7889523432327623 source=EMT-standin pbc="T T T"
Au       0.01570108      -0.07358299       0.13087775       0.01396839       0.02006433      -0.10370181
Au       0.00097869       2.41101751       2.19450305       0.00315632      -0.07685308       0.05297390
Au       2.06724214       0.01160274       2.09282634       0.01356676      -0.07740881       0.01684676
Au       2.06608324       2.23208434      -0.07418228      -0.03069147       0.13419756       0.03388116
4
Lattice="4.284800000000001 0.0 0.0 0.0 4.284800000000001 0.0 0.0 0.0 4.284800000000001" Properties=species:S:1:pos:R:3:REF_forces:R:3 ordering=1111 split=train config_type=rattle4 kind=rattled in_training=T name=094_rattle4_1111_rattled REF_energy=0.8152945620157412 source=EMT-standin pbc="T T T"
Au      -0.02572381      -0.01670663       0.06030725      -0.05383142       0.02231034      -0.07234645
Au      -0.07345942       2.04753133       2.00033011      -0.01603906      -0.03414878       0.04180205
Au       2.18412421      -0.06408764       2.29021925       0.04739072      -0.06714104      -0.17730425
Au       2.20999694       2.00792920      -0.29145667       0.02247976       0.07897948       0.20784865
8
Lattice="7.26 0.0 0.0 0.0 3.63 0.0 0.0 0.0 3.63" Properties=species:S:1:pos:R:3:REF_forces:R:3 ordering=0 split=train config_type=train8 kind=ideal in_training=T name=095_train8_00000000_ideal REF_energy=-0.014066671232908945 source=EMT-standin pbc="T T T"
Cu       0.00000000       0.00000000       0.00000000       0.00000000       0.00000000       0.00000000
Cu       0.00000000       1.81500000       1.81500000       0.00000000       0.00000000       0.00000000
Cu       1.81500000       0.00000000       1.81500000       0.00000000       0.00000000      -0.00000000
Cu       1.81500000       1.81500000       0.00000000       0.00000000      -0.00000000      -0.00000000
Cu       3.63000000       0.00000000       0.00000000      -0.00000000       0.00000000       0.00000000
Cu       3.63000000       1.81500000       1.81500000       0.00000000       0.00000000      -0.00000000
Cu       5.44500000       0.00000000       1.81500000      -0.00000000       0.00000000      -0.00000000
Cu       5.44500000       1.81500000       0.00000000      -0.00000000      -0.00000000      -0.00000000
8
Lattice="7.26 0.0 0.0 0.0 3.63 0.0 0.0 0.0 3.63" Properties=species:S:1:pos:R:3:REF_forces:R:3 ordering=0 split=train config_type=train8 kind=rattled in_training=T name=096_train8_00000000_rattled REF_energy=0.6303234243784335 source=EMT-standin pbc="T T T"
Cu      -0.04758544       0.03312618       0.03816312       0.84374183       0.18805451      -0.74140418
Cu       0.05863015       1.93245173       1.71331017       0.51338327      -0.38931099       1.57499245
Cu       1.78763959       0.09403606       1.81811582       0.13441220      -0.20276100       0.39665617
Cu       2.02448110       1.84772531       0.10653706      -1.57002922       0.14127072      -0.89793269
Cu       3.56560376       0.01896963      -0.02095342       1.09640971       0.17436496       0.07353145
Cu       3.67472054       1.86974152       1.80937158       0.27451395       0.00913573       0.54683249
Cu       5.39242141       0.08126400       1.81172431       0.26987186      -0.39549504       0.72520837
Cu       5.61313305       1.81179037       0.17724188      -1.56230362       0.47474110      -1.67788405
8
Lattice="7.26 0.0 0.0 0.0 3.63 0.0 0.0 0.0 3.63" Properties=species:S:1:pos:R:3:REF_forces:R:3 ordering=0 split=train config_type=train8 kind=rattled in_training=T name=097_train8_00000000_rattled REF_energy=0.32199474648997395 source=EMT-standin pbc="T T T"
Cu       0.02465543       0.06261283       0.05305098      -0.09389999      -0.83170411      -0.74158518
Cu      -0.01000717       1.72616934       1.73584409       0.18315158       0.87621283       0.60083337
Cu       1.93709210      -0.03354527       1.75987730      -0.83519939      -0.02025283       0.34476391
Cu       1.88650665       1.78422011      -0.03852432      -0.54609766       0.05374219      -0.38898608
Cu       3.64725017      -0.06155277      -0.00943228      -0.04476177       0.32566158      -0.59967174
Cu       3.60157076       1.78543396       1.68349943       0.31390085       0.18373120       0.75323368
Cu       5.32277393       0.09416404       1.79813901       0.78053678      -0.79683040      -0.14604410
Cu       5.41760292       1.82970128      -0.08655323       0.24236960       0.20943954       0.17745615
8
Lattice="7.26 0.0 0.0 0.0 3.63 0.0 0.0 0.0 3.63" Properties=species:S:1:pos:R:3:REF_forces:R:3 ordering=0 split=train config_type=train8 kind=rattled in_training=T name=098_train8_00000000_rattled REF_energy=0.735122987815231 source=EMT-standin pbc="T T T"
Cu       0.19946264      -0.00940508       0.04585520      -1.85842791       0.96263180      -0.06992232
Cu       0.02470125       1.83608799       1.78955844      -0.49598530      -0.01128249       0.69863750
Cu       1.84878873       0.14670543       1.92893272       0.21324150      -0.20427457      -0.35008830
Cu       1.75392594       1.97065564       0.09915141       0.71504558      -1.58654516      -0.45241004
Cu       3.54065250      -0.15412116       0.08137703       0.57883857       1.87053774      -0.88356254
Cu       3.63510267       1.88902040       1.75169551      -0.35110420      -1.31999353       1.17234236
Cu       5.33325261      -0.06993264       1.79890904       0.90449937       0.92969210       0.51218974
Cu       5.45319568       1.84855541       0.05529912       0.29389239      -0.64076589      -0.62718641
8
Lattice="8.32 0.0 0.0 0.0 4.16 0.0 0.0 0.0 4.16" Properties=species:S:1:pos:R:3:REF_forces:R:3 ordering=11111111 split=train config_type=train8 kind=ideal in_training=T name=099_train8_11111111_ideal REF_energy=0.3811230264250298 source=EMT-standin pbc="T T T"
Au       0.00000000       0.00000000       0.00000000       0.00000000      -0.00000000      -0.00000000
Au       0.00000000       2.08000000       2.08000000      -0.00000000       0.00000000       0.00000000
Au       2.08000000       0.00000000       2.08000000       0.00000000      -0.00000000       0.00000000
Au       2.08000000       2.08000000       0.00000000      -0.00000000      -0.00000000      -0.00000000
Au       4.16000000       0.00000000       0.00000000       0.00000000      -0.00000000      -0.00000000
Au       4.16000000       2.08000000       2.08000000       0.00000000       0.00000000      -0.00000000
Au       6.24000000       0.00000000       2.08000000       0.00000000       0.00000000       0.00000000
Au       6.24000000       2.08000000       0.00000000      -0.00000000      -0.00000000      -0.00000000
8
Lattice="8.32 0.0 0.0 0.0 4.16 0.0 0.0 0.0 4.16" Properties=species:S:1:pos:R:3:REF_forces:R:3 ordering=11111111 split=train config_type=train8 kind=rattled in_training=T name=100_train8_11111111_rattled REF_energy=0.7579858188258513 source=EMT-standin pbc="T T T"
Au      -0.03340424       0.05040790       0.02244339       0.08809879      -0.41395980       0.40699658
Au       0.08880115       2.00091291       2.33254599      -0.44689224       0.35711407      -0.82469673
Au       2.07316764      -0.02700336       2.06705638       0.09245584      -0.24838845      -0.05643301
Au       2.04254272       1.88362651      -0.05638299       0.56274450       0.50167717       0.45974008
Au       4.07181499      -0.05683120      -0.01600153       0.16690508       0.04181966      -0.10102295
Au       4.15616267       2.08496255       1.93336607      -0.35752708      -0.11753581       0.58516754
Au       6.44829505      -0.07983191       2.11509887      -0.50557630       0.35588425       0.32496419
Au       6.16770009       2.20922688       0.26086658       0.39979140      -0.47661109      -0.79471570
8
Lattice="8.32 0.0 0.0 0.0 4.16 0.0 0.0 0.0 4.16" Properties=species:S:1:pos:R:3:REF_forces:R:3 ordering=11111111 split=train config_type=train8 kind=rattled in_training=T name=101_train8_11111111_rattled REF_energy=0.5453063877333122 source=EMT-standin pbc="T T T"
Au       0.09190421       0.04402139      -0.15535527      -0.31668984      -0.12580251       0.35942005
Au       0.09409434       2.11647744       2.05980528      -0.28278819      -0.00578441      -0.10966896
Au       2.10100767       0.05772682       2.11098940      -0.02558744      -0.20849899      -0.35884741
Au       2.12937442       1.98322469      -0.03465566      -0.14536839       0.27808247       0.11062212
Au       4.02903901      -0.13558599      -0.03847585       0.51290113       0.36031326       0.11544184
Au       4.19677165       2.17605027       2.04588387       0.08790794      -0.37565365       0.02432231
Au       6.24839620      -0.01091035       2.17109556       0.03941248       0.01403320      -0.16172345
Au       6.19576898       2.01001400      -0.00795509       0.13021230       0.06331062       0.02043349
8
Lattice="8.32 0.0 0.0 0.0 4.16 0.0 0.0 0.0 4.16" Properties=species:S:1:pos:R:3:REF_forces:R:3 ordering=11111111 split=train config_type=train8 kind=rattled in_training=T name=102_train8_11111111_rattled REF_energy=0.47139998263277594 source=EMT-standin pbc="T T T"
Au      -0.09222363       0.00046530      -0.02806436       0.26202480       0.01260253       0.15513125
Au      -0.01030094       2.07395970       2.14327834       0.06112062      -0.05790732      -0.11871434
Au       2.08742353      -0.12409198       2.13535862      -0.09605656       0.23480164      -0.04820630
Au       2.04284744       2.07680924       0.08767477       0.01706476      -0.10629116      -0.06329608
Au       4.14937727      -0.06018600      -0.07776472      -0.03879336       0.21922048       0.38404620
Au       4.18453761       2.13296861       2.20373253      -0.11046409      -0.31743282      -0.32233042
Au       6.22433454      -0.05345705       2.10302453       0.01744751       0.18786481      -0.10767661
Au       6.27689463       2.11824939      -0.00039455      -0.11234367      -0.17285816       0.12104631
8
Lattice="7.3925 0.0 0.0 0.0 3.69625 0.0 0.0 0.0 3.69625" Properties=species:S:1:pos:R:3:REF_forces:R:3 ordering=1 split=train config_type=train8 kind=ideal in_training=T name=103_train8_00000001_ideal REF_energy=0.0340047426840302 source=EMT-standin pbc="T T T"
Cu       0.00000000       0.00000000       0.00000000       0.40281316      -0.00000000      -0.00000000
Cu       0.00000000       1.84812500       1.84812500       0.40281316      -0.00000000      -0.00000000
Cu       1.84812500       0.00000000       1.84812500       0.00000000      -0.00000000       0.00000000
Cu       1.84812500       1.84812500       0.00000000      -0.00000000      -0.00000000       0.00000000
Cu       3.69625000       0.00000000       0.00000000      -0.40281316      -0.00000000      -0.00000000
Cu       3.69625000       1.84812500       1.84812500      -0.40281316      -0.00000000       0.00000000
Cu       5.54437500       0.00000000       1.84812500      -0.00000000      -0.00000000      -0.00000000
Au       5.54437500       1.84812500       0.00000000      -0.00000000       0.00000000      -0.00000000
8
Lattice="7.3925 0.0 0.0 0.0 3.69625 0.0 0.0 0.0 3.69625" Properties=species:S:1:pos:R:3:REF_forces:R:3 ordering=1 split=train config_type=train8 kind=rattled in_training=T name=104_train8_00000001_rattled REF_energy=0.3136411715429448 source=EMT-standin pbc="T T T"
Cu       0.05559292      -0.20996406       0.00263598       0.14690824       1.37414099      -0.08950249
Cu      -0.00999286       1.75546640       1.85201072       0.54477197      -0.13374449       0.03710627
Cu       1.92246949       0.04739079       1.85648168      -0.28022185      -0.05422102       0.39385807
Cu       1.84811441       1.92721361       0.10035980       0.43258162      -0.70137899      -0.49841710
Cu       3.73676351       0.02186147       0.10097888      -0.56324083       0.15510907      -0.65182224
Cu       3.70042058       1.88773752       1.84186187      -0.26441046      -0.13184662       0.38864106
Cu       5.59308460      -0.03703208       1.78479750      -0.03836582       0.35936840       0.48349130
Au       5.53558989       1.88258010      -0.03114624       0.02197713      -0.86742734      -0.06335487
8
Lattice="7.3925 0.0 0.0 0.0 3.69625 0.0 0.0 0.0 3.69625" Properties=species:S:1:pos:R:3:REF_forces:R:3 ordering=1 split=train config_type=train8 kind=rattled in_training=T name=105_train8_00000001_rattled REF_energy=1.0203705720937224 source=EMT-standin pbc="T T T"
Cu      -0.07059059      -0.10478176       0.15059449       0.60464290       0.37179246      -1.08402087
Cu       0.05207544       1.80884323       1.76631731       0.18466124      -0.09402298       0.85938039
Cu       1.92824024      -0.14913914       1.93664249      -0.67599738       1.30428709      -0.83675090
Cu       1.83384805       1.90711224      -0.06740392      -0.20411506      -0.99832781       1.03662204
Cu       3.78112875      -0.08383683      -0.08975152      -1.20966453       0.34613607       1.03524019
Cu       3.60686889       1.85109556       2.00486178       0.10822164      -0.63494149      -1.58874586
Cu       5.56636748       0.19357012       1.81772039      -0.16935089      -2.09172549       0.91307042
Au       5.40155569       1.74303819       0.04507315       1.36160208       1.79680214      -0.33479539
8
Lattice="7.3925 0.0 0.0 0.0 3.69625 0.0 0.0 0.0 3.69625" Properties=species:S:1:pos:R:3:REF_forces:R:3 ordering=1 split=train config_type=train8 kind=rattled in_training=T name=106_train8_00000001_rattled REF_energy=0.41931901714643427 source=EMT-standin pbc="T T T"
Cu      -0.10752194      -0.00703520      -0.00913969       1.00986143       0.26519655      -0.27512915
Cu       0.12203472       1.92618048       1.77772787      -0.57328775      -0.41106507      -0.04073199
Cu       1.81557425       0.01418370       1.84778124       0.07682246      -0.27663796      -0.33614407
Cu       1.80114697       1.82115478      -0.14662576       0.16450476       0.15782048       0.98859662
Cu       3.79044375      -0.01035260       0.10607071      -1.30372148      -0.32407953      -0.86889154
Cu       3.56887185       1.71593875       1.86878012       0.34243651       0.80753066      -0.16988181
Cu       5.47722576       0.02095056       1.76118360       0.55258714      -0.20283012       0.85642086
Au       5.57020909       1.85270774      -0.05813864      -0.26920306      -0.01593502      -0.15423892
8
Lattice="7.525 0.0 0.0 0.0 3.7625 0.0 0.0 0.0 3.7625" Properties=species:S:1:pos:R:3:REF_forces:R:3 ordering=11 split=train config_type=train8 kind=ideal in_training=T name=107_train8_00000011_ideal REF_energy=0.35294184900531445 source=EMT-standin pbc="T T T"
Cu       0.00000000       0.00000000       0.00000000       0.75583324      -0.00000000      -0.00000000
Cu       0.00000000       1.88125000       1.88125000       0.75583324       0.00000000       0.00000000
Cu       1.88125000       0.00000000       1.88125000       0.00000000      -0.00000000       0.00000000
Cu       1.88125000       1.88125000       0.00000000       0.00000000       0.00000000       0.00000000
Cu       3.76250000       0.00000000       0.00000000      -0.75583324      -0.00000000      -0.00000000
Cu       3.76250000       1.88125000       1.88125000      -0.75583324      -0.00000000       0.00000000
Au       5.64375000       0.00000000       1.88125000       0.00000000      -0.00000000       0.00000000
Au       5.64375000       1.88125000       0.00000000       0.00000000       0.00000000       0.00000000
8
Lattice="7.525 0.0 0.0 0.0 3.7625 0.0 0.0 0.0 3.7625" Properties=species:S:1:pos:R:3:REF_forces:R:3 ordering=11 split=train config_type=train8 kind=rattled in_training=T name=108_train8_00000011_rattled REF_energy=0.9997288363596937 source=EMT-standin pbc="T T T"
Cu      -0.12051956      -0.06569898      -0.00912888       1.40841516      -0.04973538       0.00695190
Cu      -0.04781299       1.70432316       1.89785585       0.64360939       0.51042863      -0.38510217
Cu       1.86792456      -0.02482989       1.71860293       0.03566707      -0.39512067      -0.09932329
Cu       1.80215017       1.72659461      -0.28321254       0.12308724       0.34273828       1.02542213
Cu       3.89610344      -0.11095597      -0.03100836      -1.92321041       0.69553451       0.32712975
Cu       3.72479942       1.87220030       1.96690476      -0.49435194      -0.43150911      -0.68392432
Au       5.61859233      -0.09904407       1.89352891       0.11127369       0.98838453       0.04655604
Au       5.63312289       1.88951158       0.04354548       0.09550980      -1.66072079      -0.23771005
8
Lattice="7.525 0.0 0.0 0.0 3.7625 0.0 0.0 0.0 3.7625" Properties=species:S:1:pos:R:3:REF_forces:R:3 ordering=11 split=train config_type=train8 kind=rattled in_training=T name=109_train8_00000011_rattled REF_energy=1.389247096527674 source=EMT-standin pbc="T T T"
Cu       0.00711883       0.05134860      -0.14668073       0.47876542      -0.55071970       0.56924387
Cu      -0.02611752       1.81514914       1.91665314       0.80856333       0.79676825      -0.68457071
Cu       1.83172346      -0.01328718       1.71662726       0.19016163       0.20103175       0.44214387
Cu       1.84826471       1.95554270      -0.01764010       0.17817064      -0.24158368      -0.16682348
Cu       3.86894367       0.05908452       0.05533877      -2.45342648      -0.81588967      -0.40183805
Cu       3.79444801       1.95059890       1.96841812      -1.83750121       0.41926029      -0.66245029
Au       5.54051252       0.17929449       1.84545275       1.20737627      -3.57470586      -0.34788845
Au       5.56288614       1.77527783      -0.07626227       1.42789040       3.76583862       1.25218323
8
Lattice="7.525 0.0 0.0 0.0 3.7625 0.0 0.0 0.0 3.7625" Properties=species:S:1:pos:R:3:REF_forces:R:3 ordering=11 split=train config_type=train8 kind=rattled in_training=T name=110_train8_00000011_rattled REF_energy=0.5840904625187857 source=EMT-standin pbc="T T T"
Cu      -0.05690036       0.10667702      -0.05407935       1.02220651      -0.39820806       0.22667643
Cu       0.07092632       1.94742721       1.96884904       0.34804988      -0.18369742      -0.36543220
Cu       1.92247893      -0.00187648       1.88873794      -0.34808606      -0.07039009      -0.18277299
Cu       1.88056108       1.84575336       0.03044326      -0.03261277       0.19685328       0.08087839
Cu       3.76521771      -0.01006871      -0.13715208      -0.79414637      -0.17414374       0.66013113
Cu       3.65438245       1.83473729       1.94303239      -0.18009127       0.18691045      -0.45537293
Au       5.68537220      -0.05104032       1.79635624      -0.29293531       0.39380868       1.37583980
Au       5.54324951       1.85397188       0.07809844       0.27761538       0.04886688      -1.33994762
8
Lattice="7.525 0.0 0.0 0.0 3.7625 0.0 0.0 0.0 3.7625" Properties=species:S:1:pos:R:3:REF_forces:R:3 ordering=10001 split=train config_type=train8 kind=ideal in_training=T name=111_train8_00010001_ideal REF_energy=-0.038504915244864435 source=EMT-standin pbc="T T T"
Cu       0.00000000       0.00000000       0.00000000      -0.00000000      -0.00000000       0.00000000
Cu       0.00000000       1.88125000       1.88125000      -0.00000000      -0.00000000      -0.00000000
Cu       1.88125000       0.00000000       1.88125000      -0.00000000      -0.00000000       0.00000000
Au       1.88125000       1.88125000       0.00000000      -0.00000000      -0.00000000       0.00000000
Cu       3.76250000       0.00000000       0.00000000      -0.00000000      -0.00000000       0.00000000
Cu       3.76250000       1.88125000       1.88125000      -0.00000000       0.00000000       0.00000000
Cu       5.64375000       0.00000000       1.88125000       0.00000000       0.00000000      -0.00000000
Au       5.64375000       1.88125000       0.00000000       0.00000000      -0.00000000       0.00000000
8
Lattice="7.525 0.0 0.0 0.0 3.7625 0.0 0.0 0.0 3.7625" Properties=species:S:1:pos:R:3:REF_forces:R:3 ordering=10001 split=train config_type=train8 kind=rattled in_training=T name=112_train8_00010001_rattled REF_energy=0.3843054689273391 source=EMT-standin pbc="T T T"
Cu      -0.03264547       0.07044468      -0.05157902      -0.09919729      -0.22941190      -0.06803378
Cu       0.14152975       1.95662292       1.85054512      -1.10811560      -0.01485907       0.16593560
Cu       1.86100405       0.10268750       1.77165127       0.33141973      -0.64881727       0.65840754
Au       1.80177373       1.88827372       0.04145597       1.11082183       0.52926816      -1.04306464
Cu       3.88821439      -0.01694235      -0.14912475      -0.95641056       0.10120240       0.41329999
Cu       3.75842436       1.84008245       1.85661074      -0.31143068       0.11405921      -0.56000734
Cu       5.64807228      -0.11172637       1.78888500       0.21538095       0.70291096      -0.49275860
Au       5.60299061       1.89795854      -0.19352434       0.81753160      -0.55435249       0.92622123
8
Lattice="7.525 0.0 0.0 0.0 3.7625 0.0 0.0 0.0 3.7625" Properties=species:S:1:pos:R:3:REF_forces:R:3 ordering=10001 split=train config_type=train8 kind=rattled in_training=T name=113_train8_00010001_rattled REF_energy=0.4724116843727586 source=EMT-standin pbc="T T T"
Cu       0.11630534      -0.11736159       0.01375480      -0.78651964       0.84474874      -0.31984504
Cu       0.03028218       1.92395041       1.75726363      -0.46315374      -0.24477284       0.91098414
Cu       1.97033148       0.16405843       1.96819744      -0.28719597      -0.99233469      -0.63026964
Au       1.86169043       1.86450700       0.04138861       0.71775860       0.26319307      -0.25451574
Cu       3.76445436      -0.07607777      -0.12031201      -0.18444661       0.47992484       0.55922183
Cu       3.81750570       1.88126330       1.84640603      -0.67625276       0.33369640       0.07865016
Cu       5.55289314       0.13978488       1.81495809       0.59670490      -0.89341378       0.27246687
Au       5.53812594       1.88811827       0.01305861       1.08310523       0.20895826      -0.61669257
8
Lattice="7.525 0.0 0.0 0.0 3.7625 0.0 0.0 0.0 3.7625" Properties=species:S:1:pos:R:3:REF_forces:R:3 ordering=10001 split=train config_type=train8 kind=rattled in_training=T name=114_train8_00010001_rattled REF_energy=0.26347764571630883 source=EMT-standin pbc="T T T"
Cu       0.04042644      -0.06276477       0.09039114      -0.02504308       0.57993419      -0.42211831
Cu       0.05620852       1.83545206       1.81151082      -0.00472360       0.00595738       1.14797785
Cu       1.91198927       0.02838515       1.92457219       0.12118930      -0.14051706      -0.07078057
Au       1.87411204       1.91251606       0.04364533       0.62869095      -0.21278410      -0.31604401
Cu       3.85546463       0.02309337      -0.11277685      -0.51101741      -0.05070271       0.76853289
Cu       3.84446290       1.83791803       1.89594337      -0.43044323       0.23301136       0.01937344
Cu       5.61793607      -0.02463034       1.97073750       0.55726990       0.34228959      -0.10084804
Au       5.72241614       1.95712766       0.16085439      -0.33592281      -0.75718865      -1.02609323
8
Lattice="7.525 0.0 0.0 0.0 3.7625 0.0 0.0 0.0 3.7625" Properties=species:S:1:pos:R:3:REF_forces:R:3 ordering=10010 split=train config_type=train8 kind=ideal in_training=T name=115_train8_00010010_ideal REF_energy=-0.040377232753151304 source=EMT-standin pbc="T T T"
Cu       0.00000000       0.00000000       0.00000000      -0.00000000      -0.00000000      -0.00000000
Cu       0.00000000       1.88125000       1.88125000      -0.00000000       0.00000000      -0.00000000
Cu       1.88125000       0.00000000       1.88125000      -0.00000000      -0.00000000      -0.00000000
Au       1.88125000       1.88125000       0.00000000      -0.00000000      -0.00000000       0.00000000
Cu       3.76250000       0.00000000       0.00000000      -0.00000000       0.00000000      -0.00000000
Cu       3.76250000       1.88125000       1.88125000      -0.00000000       0.00000000       0.00000000
Au       5.64375000       0.00000000       1.88125000       0.00000000       0.00000000      -0.00000000
Cu       5.64375000       1.88125000       0.00000000       0.00000000       0.00000000      -0.00000000
8
Lattice="7.525 0.0 0.0 0.0 3.7625 0.0 0.0 0.0 3.7625" Properties=species:S:1:pos:R:3:REF_forces:R:3 ordering=10010 split=train config_type=train8 kind=rattled in_training=T name=116_train8_00010010_rattled REF_energy=0.3911108533789207 source=EMT-standin pbc="T T T"
Cu       0.00369192       0.00735711      -0.01881483       0.24023836      -0.06996532       0.22045659
Cu      -0.01825484       1.96639128       1.81329040       0.37186358      -0.21806138      -0.04183243
Cu       1.87149484       0.04437111       1.88919264      -0.13910847      -0.96314986      -0.75242068
Au       1.94684952       1.72906480      -0.10899038      -0.56134830       1.10709995       0.89068703
Cu       3.73977568      -0.13730483      -0.11759484       0.22044355       0.12782728       0.72144295
Cu       3.75219925       1.78608772       1.87358036       0.30460060       0.34546402      -0.60214880
Au       5.67905340       0.07834084       1.99622074      -0.15846024      -0.56595570      -1.53619991
Cu       5.71774067       1.89373964      -0.11540014      -0.27822908       0.23674101       1.10001526
8
Lattice="7.525 0.0 0.0 0.0 3.7625 0.0 0.0 0.0 3.7625" Properties=species:S:1:pos:R:3:REF_forces:R:3 ordering=10010 split=train config_type=train8 kind=rattled in_training=T name=117_train8_00010010_rattled REF_energy=0.5349938900417435 source=EMT-standin pbc="T T T"
Cu      -0.03180811      -0.00777827      -0.04101118       0.67354674      -0.05400082       0.02602293
Cu      -0.04237974       1.83747056       1.83652146       0.88383061       0.40023912       0.43505252
Cu       1.89330478      -0.12848219       1.90593277      -0.35017983       0.72686822       0.21642766
Au       2.04331278       1.88563280       0.12479417      -1.96237269      -0.34897672      -1.50622896
Cu       3.72235493       0.04347788      -0.09554858       0.88743420      -0.39867289       0.16891890
Cu       3.69904332       1.82240105       1.79755109       1.36476456       0.24597189       1.07727599
Au       5.70161795       0.09500262       1.83680772      -0.78276404      -0.91676357       0.48346199
Cu       5.76284256       1.89188460       0.08801350      -0.71425955       0.34533477      -0.90093103
8
Lattice="7.525 0.0 0.0 0.0 3.7625 0.0 0.0 0.0 3.7625" Properties=species:S:1:pos:R:3:REF_forces:R:3 ordering=10010 split=train config_type=train8 kind=rattled in_training=T name=118_train8_00010010_rattled REF_energy=0.6061053904205167 source=EMT-standin pbc="T T T"
Cu      -0.03016585       0.08010525      -0.06467561      -0.48577837      -1.04857444       0.39204765
Cu       0.02274315       1.77830949       2.00929129      -1.00908005       0.54466069      -1.41026119
Cu       1.83465644      -0.13835206       1.79542011       0.16489289       0.46532362       0.35875284
Au       1.71499360       1.84417444      -0.04422149       1.56564475       0.10312586       0.58182374
Cu       3.70132496       0.01058822       0.06659886      -0.55963854      -0.23384514      -1.05084610
Cu       3.86915690       1.80693601       1.86678472      -1.23449616       0.44358411       0.29931700
Au       5.51360005      -0.01382033       1.69362849       1.43619005      -0.32026499       1.51566130
Cu       5.63821902       1.88084652       0.00682185       0.12226545       0.04599029      -0.68649524
8
Lattice="7.79 0.0 0.0 0.0 3.895 0.0 0.0 0.0 3.895" Properties=species:S:1:pos:R:3:REF_forces:R:3 ordering=10111 split=train config_type=train8 kind=ideal in_training=T name=119_train8_00010111_ideal REF_energy=0.22499722547826728 source=EMT-standin pbc="T T T"
Cu       0.00000000       0.00000000       0.00000000       0.25852781      -0.00000000       0.00000000
Cu       0.00000000       1.94750000       1.94750000       0.25876667      -0.00000000       0.00000000
Cu       1.94750000       0.00000000       1.94750000      -0.18542706       0.00000000      -0.00000000
Au       1.94750000       1.94750000       0.00000000      -0.43707779       0.00000000       0.00000000
Cu       3.89500000       0.00000000       0.00000000      -0.27574835      -0.00000000      -0.00000000
Au       3.89500000       1.94750000       1.94750000      -0.68948760       0.00000000      -0.00000000
Au       5.84250000       0.00000000       1.94750000       0.53483870       0.00000000      -0.00000000
Au       5.84250000       1.94750000       0.00000000       0.53560762       0.00000000      -0.00000000
8
Lattice="7.79 0.0 0.0 0.0 3.895 0.0 0.0 0.0 3.895" Properties=species:S:1:pos:R:3:REF_forces:R:3 ordering=10111 split=train config_type=train8 kind=rattled in_training=T name=120_train8_00010111_rattled REF_energy=0.5829734850160548 source=EMT-standin pbc="T T T"
Cu       0.04828461       0.04903884      -0.01144484      -0.01081016      -0.07582550      -0.07670646
Cu      -0.04930067       1.97241694       1.87527877       0.40715541      -0.08346031       0.14153548
Cu       1.94115334       0.00704805       1.95948471      -0.78112028      -0.18571693       0.02882356
Au       1.98569109       2.02005751       0.03210703      -1.84884346      -0.01832298      -0.22103551
Cu       3.93768535       0.06242446       0.03294593      -0.34635442      -0.36405867      -0.25406861
Au       3.60547835       1.86465646       1.96689525       2.19027164       0.49495733       0.09878325
Au       5.75926534      -0.08979177       1.87113908       0.44108075       0.43805607       0.24930433
Au       5.90917290       1.93740506      -0.07339076      -0.05137948      -0.20562900       0.03336397
8
Lattice="7.79 0.0 0.0 0.0 3.895 0.0 0.0 0.0 3.895" Properties=species:S:1:pos:R:3:REF_forces:R:3 ordering=10111 split=train config_type=train8 kind=rattled in_training=T name=121_train8_00010111_rattled REF_energy=0.3306873618203934 source=EMT-standin pbc="T T T"
Cu       0.05038726      -0.07679001       0.02561391       0.35299147       0.28066503      -0.04278934
Cu       0.05171092       2.00106791       1.99844210       0.28594326      -0.22396898      -0.18686650
Cu       1.93266407      -0.02811265       1.95022445      -0.13436618       0.15217787      -0.03749849
Au       2.01066461       1.92494669      -0.03584697      -0.75240324       0.21090372       0.10652363
Cu       3.76160664       0.09208390       0.02163151       0.44552824      -0.35258992      -0.18643685
Au       3.97067891       2.03016845       1.89109914      -0.75674437      -0.07791065       0.24349147
Au       6.01659558       0.04527333       1.94377555      -0.09211884       0.07382303      -0.12743107
Au       5.82251180       1.98983100      -0.04554034       0.65116967      -0.06310011       0.23100715
8
Lattice="7.79 0.0 0.0 0.0 3.895 0.0 0.0 0.0 3.895" Properties=species:S:1:pos:R:3:REF_forces:R:3 ordering=10111 split=train config_type=train8 kind=rattled in_training=T name=122_train8_00010111_rattled REF_energy=0.4312800477420584 source=EMT-standin pbc="T T T"
Cu       0.09152650      -0.00226510       0.04167241      -0.19742304       0.05312533      -0.11974221
Cu       0.03673653       1.95427947       1.94883368      -0.05423864       0.02258702       0.03955264
Cu       1.86008633       0.04944976       1.94017892       0.06445837      -0.24892046       0.16666001
Au       1.88517032       1.87448787       0.00951838      -0.22617594       0.54901458       0.17497663
Cu       3.78098550       0.05983260       0.08228156      -0.00027976       0.02276995      -0.01094743
Au       3.84920115       2.05852299       2.07634346      -0.65039435      -0.47068876      -0.55787351
Au       5.78834378      -0.01802095       1.95887327       0.68484780       1.52440348      -0.12947929
Au       5.87137944       2.16697785      -0.01422776       0.37920557      -1.45229112       0.43685315
8
Lattice="7.79 0.0 0.0 0.0 3.895 0.0 0.0 0.0 3.895" Properties=species:S:1:pos:R:3:REF_forces:R:3 ordering=11101 split=train config_type=train8 kind=ideal in_training=T name=123_train8_00011101_ideal REF_energy=0.3580856386121347 source=EMT-standin pbc="T T T"
Cu       0.00000000       0.00000000       0.00000000       0.00000000      -0.00000000       0.00000000
Cu       0.00000000       1.94750000       1.94750000       0.00000000       0.00000000       0.00000000
Cu       1.94750000       0.00000000       1.94750000      -0.44970566      -0.00000000       0.00000000
Au       1.94750000       1.94750000       0.00000000      -1.10846357      -0.00000000      -0.00000000
Au       3.89500000       0.00000000       0.00000000      -0.00000000      -0.00000000       0.00000000
Au       3.89500000       1.94750000       1.94750000      -0.00000000       0.00000000       0.00000000
Cu       5.84250000       0.00000000       1.94750000       0.44970566      -0.00000000      -0.00000000
Au       5.84250000       1.94750000       0.00000000       1.10846357       0.00000000      -0.00000000
8
Lattice="7.79 0.0 0.0 0.0 3.895 0.0 0.0 0.0 3.895" Properties=species:S:1:pos:R:3:REF_forces:R:3 ordering=11101 split=train config_type=train8 kind=rattled in_training=T name=124_train8_00011101_rattled REF_energy=0.5298003893815633 source=EMT-standin pbc="T T T"
Cu       0.02067268       0.08107639      -0.11063979      -0.38020739      -0.48254848       0.28257169
Cu      -0.01920623       1.93907019       1.98323134      -0.11170366       0.21339792      -0.17130917
Cu       1.95660392       0.04900335       1.96367120      -0.30330277      -0.25800630      -0.07312548
Au       1.76728371       1.88824990       0.03133208       0.28851134       0.65170682       0.04152428
Au       3.94882494       0.08507664      -0.02173745      -0.81176249      -0.65929043       0.57698488
Au       3.96595540       1.96144493       2.03170959      -0.93417665       0.48636163      -0.75088919
Cu       5.90558874       0.07247631       1.92481916       0.33848578      -0.19847957       0.10349586
Au       5.79188846       1.99350747       0.04920413       1.91415584       0.24685841      -0.00925286
8
Lattice="7.79 0.0 0.0 0.0 3.895 0.0 0.0 0.0 3.895" Properties=species:S:1:pos:R:3:REF_forces:R:3 ordering=11101 split=train config_type=train8 kind=rattled in_training=T name=125_train8_00011101_rattled REF_energy=0.6874690461118202 source=EMT-standin pbc="T T T"
Cu      -0.07831085      -0.01538104      -0.13389208       0.77822611       0.54588356       0.46372100
Cu      -0.10611564       1.91712644       1.91674362       0.56083829       0.05184925      -0.10935143
Cu       1.90759247       0.06067534       2.06725709      -0.52301265      -0.60455891      -0.77620751
Au       1.94196576       1.86155209      -0.06163163      -1.60443098       0.72910722       0.52625946
Au       3.87349981       0.01542921      -0.01907630       0.45964007      -0.23969955       0.10564336
Au       3.77807416       1.92614052       1.89168642       0.96350707       0.36827906       0.17910037
Cu       5.87199323       0.01866442       2.06301017      -0.07068516       0.39318478      -0.81265883
Au       5.98718275       2.14245526      -0.03067031      -0.56408275      -1.24404542       0.42349358
8
Lattice="7.79 0.0 0.0 0.0 3.895 0.0 0.0 0.0 3.895" Properties=species:S:1:pos:R:3:REF_forces:R:3 ordering=11101 split=train config_type=train8 kind=rattled in_training=T name=126_train8_00011101_rattled REF_energy=0.7329731381895339 source=EMT-standin pbc="T T T"
Cu       0.08716997       0.06893950      -0.05572939      -0.29399939       0.01825533       0.18897054
Cu       0.05491281       2.02614467       2.06498569      -0.47113328      -0.05476610      -0.65010834
Cu       1.93502837      -0.00280797       1.88952264      -0.29774292       0.31998761      -0.08670470
Au       1.92513514       2.03792054      -0.14778725      -0.50804608      -0.49681694       0.69438257
Au       3.86656509      -0.01148412       0.02797660      -0.13496266       0.59536385      -0.70876325
Au       3.98821030       1.99445733       1.87535854      -1.09761757      -0.17179193       1.10031304
Cu       5.85317440       0.14339923       1.90386857       0.64152105      -0.59039151       0.38856303
Au       5.77619333       1.93858346       0.06645080       2.16198084       0.38015968      -0.92665290
8
Lattice="7.79 0.0 0.0 0.0 3.895 0.0 0.0 0.0 3.895" Properties=species:S:1:pos:R:3:REF_forces:R:3 ordering=110011 split=train config_type=train8 kind=ideal in_training=T name=127_train8_00110011_ideal REF_energy=0.08795647885232327 source=EMT-standin pbc="T T T"
Cu       0.00000000       0.00000000       0.00000000      -0.00000000      -0.00000000       0.00000000
Cu       0.00000000       1.94750000       1.94750000       0.00000000      -0.00000000      -0.00000000
Au       1.94750000       0.00000000       1.94750000      -0.00000000       0.00000000      -0.00000000
Au       1.94750000       1.94750000       0.00000000       0.00000000       0.00000000      -0.00000000
Cu       3.89500000       0.00000000       0.00000000      -0.00000000      -0.00000000       0.00000000
Cu       3.89500000       1.94750000       1.94750000       0.00000000       0.00000000      -0.00000000
Au       5.84250000       0.00000000       1.94750000       0.00000000       0.00000000       0.00000000
Au       5.84250000       1.94750000       0.00000000       0.00000000      -0.00000000      -0.00000000
8
Lattice="7.79 0.0 0.0 0.0 3.895 0.0 0.0 0.0 3.895" Properties=species:S:1:pos:R:3:REF_forces:R:3 ordering=110011 split=train config_type=train8 kind=rattled in_training=T name=128_train8_00110011_rattled REF_energy=0.8511554204397775 source=EMT-standin pbc="T T T"
Cu      -0.03746600      -0.04600304      -0.04272173       0.29971625       0.02814232      -0.25347808
Cu      -0.14488613       1.92325272       1.95416639       1.17057431       0.24879024       0.22649530
Au       1.86356543      -0.17539623       1.74014154      -0.16079083       1.86705002       1.66307022
Au       2.04233654       2.01459631      -0.00613536      -0.28677962      -1.59795992      -1.48832022
Cu       4.00008035       0.01179004       0.07419386      -0.22047698       0.09918086      -0.55095470
Cu       3.85240936       2.06065566       1.85813255       0.56384277      -0.42720793       0.46136689
Au       5.88917338       0.11318949       1.86901094      -0.53092270      -1.45573562       1.25217868
Au       5.96609900       1.87646086       0.07958148      -0.83516320       1.23774004      -1.31035809
8
Lattice="7.79 0.0 0.0 0.0 3.895 0.0 0.0 0.0 3.895" Properties=species:S:1:pos:R:3:REF_forces:R:3 ordering=110011 split=train config_type=train8 kind=rattled in_training=T name=129_train8_00110011_rattled REF_energy=0.4977049328838721 source=EMT-standin pbc="T T T"
Cu      -0.03331530       0.01896197       0.04440944      -0.09014953       0.06643054      -0.11924206
Cu      -0.11342451       1.94879506       1.88183020       0.21490463       0.09843224       0.21703391
Au       2.09556954       0.02429872       1.97384935      -0.98139640      -0.37128896      -0.34509195
Au       1.89292653       2.02641583      -0.07791232      -0.27593856      -0.36108625       0.75966958
Cu       3.94441616      -0.04498434       0.10931408      -0.62814665       0.12179865      -0.21275141
Cu       3.82012807       1.76757473       2.12516097       0.31859751       1.17290902      -0.51438776
Au       5.69689211       0.07925921       1.99255204       0.79965450      -0.63366583       0.17720887
Au       5.69402191       1.99357019       0.05293021       0.64247449      -0.09352940       0.03756082
8
Lattice="7.79 0.0 0.0 0.0 3.895 0.0 0.0 0.0 3.895" Properties=species:S:1:pos:R:3:REF_forces:R:3 ordering=110011 split=train config_type=train8 kind=rattled in_training=T name=130_train8_00110011_rattled REF_energy=0.46787461850085243 source=EMT-standin pbc="T T T"
Cu       0.11208303       0.11030736       0.00985070      -0.92938081      -0.37904878      -0.03178810
Cu      -0.07306214       1.86994619       1.97151293      -0.08242599       0.58581392      -0.03667548
Au       1.80009577       0.04700944       1.94685061       0.70407087      -0.50027466       0.34624093
Au       1.97255529       1.94498277       0.06571558      -0.04673876       0.20061220      -0.44219351
Cu       3.86173654      -0.13770707       0.04120218      -0.45554820       0.69291049      -0.23439995
Cu       3.88991023       1.88035165       1.91068030      -0.61496688       0.43459266       0.22919716
Au       5.69403659       0.14901506       1.91395581       0.70088639      -0.90860042       0.12494168
Au       5.70372434       2.03276336      -0.03610293       0.72410339      -0.12600542       0.04467726
8
Lattice="8.1875 0.0 0.0 0.0 4.09375 0.0 0.0 0.0 4.09375" Properties=species:S:1:pos:R:3:REF_forces:R:3 ordering=1111111 split=train config_type=train8 kind=ideal in_training=T name=131_train8_01111111_ideal REF_energy=0.3270141669430906 source=EMT-standin pbc="T T T"
Cu       0.00000000       0.00000000       0.00000000       0.00000000      -0.00000000      -0.00000000
Au       0.00000000       2.04687500       2.04687500       0.00000000      -0.00000000       0.00000000
Au       2.04687500       0.00000000       2.04687500      -0.27466970      -0.00000000      -0.00000000
Au       2.04687500       2.04687500       0.00000000      -0.27466970       0.00000000       0.00000000
Au       4.09375000       0.00000000       0.00000000      -0.00000000      -0.00000000      -0.00000000
Au       4.09375000       2.04687500       2.04687500       0.00000000       0.00000000      -0.00000000
Au       6.14062500       0.00000000       2.04687500       0.27466970       0.00000000       0.00000000
Au       6.14062500       2.04687500       0.00000000       0.27466970       0.00000000      -0.00000000
8
Lattice="8.1875 0.0 0.0 0.0 4.09375 0.0 0.0 0.0 4.09375" Properties=species:S:1:pos:R:3:REF_forces:R:3 ordering=1111111 split=train config_type=train8 kind=rattled in_training=T name=132_train8_01111111_rattled REF_energy=0.4214106279649643 source=EMT-standin pbc="T T T"
Cu      -0.08257050      -0.12079024       0.10993857       0.16041233       0.35928908      -0.22077048
Au       0.04725575       2.14829313       2.04247640      -0.24458524      -0.31622329       0.16974843
Au       1.97717600       0.07549385       2.05174348       0.03104333      -0.15063359       0.05234214
Au       1.96799610       2.02930593       0.03364410       0.03540818       0.17929541      -0.07154066
Au       3.99561426       0.05830347      -0.03293864       0.22146127      -0.15751818       0.30478574
Au       4.17330749       2.06699371       2.16501144      -0.24837762       0.03195030      -0.39100344
Au       6.15851478      -0.03356335       2.08376475       0.08607164       0.21451083      -0.08045109
Au       6.22173578       2.05596952      -0.02641103      -0.04143388      -0.16067057       0.23688935
8
Lattice="8.1875 0.0 0.0 0.0 4.09375 0.0 0.0 0.0 4.09375" Properties=species:S:1:pos:R:3:REF_forces:R:3 ordering=1111111 split=train config_type=train8 kind=rattled in_training=T name=133_train8_01111111_rattled REF_energy=0.8716267720892965 source=EMT-standin pbc="T T T"
Cu       0.01532168       0.17575832       0.06314159      -0.07070203      -0.15241707      -0.03516903
Au      -0.08550011       2.03258625       2.06849347       0.09843806       0.14709977      -0.04997467
Au       2.11456914       0.13782159       2.20488459      -1.43693959      -0.51232428      -1.20530073
Au       2.09053570       2.05904618      -0.00683380      -0.95760777       0.17405016       0.58610381
Au       3.91758524      -0.05345454      -0.09385778       1.21974639       0.09775146       1.51887912
Au       4.14692738       1.97981706       2.20532774      -0.22757249       0.49770041      -1.18924318
Au       6.03647665       0.04220674       2.10258908       0.72930862      -0.21117398      -0.37085565
Au       6.10120504       2.09903980      -0.08710170       0.64532881      -0.04068648       0.74556034
8
Lattice="8.1875 0.0 0.0 0.0 4.09375 0.0 0.0 0.0 4.09375" Properties=species:S:1:pos:R:3:REF_forces:R:3 ordering=1111111 split=train config_type=train8 kind=rattled in_training=T name=134_train8_01111111_rattled REF_energy=0.7306242027367551 source=EMT-standin pbc="T T T"
Cu      -0.03170878      -0.03349714      -0.00242323       0.08663515       0.06483543       0.03175265
Au       0.03039497       2.10625272       2.02679884      -0.12798891      -0.17783003       0.08263521
Au       2.06459914      -0.07737860       2.10720044      -0.31210827       0.25738944      -0.11727259
Au       1.93299280       2.01864457       0.03525677       0.02484609      -0.09482701      -0.05810302
Au       4.16199924      -0.14547917      -0.03640831      -1.27355081       1.48689007       0.33275192
Au       4.16135429       2.11046898       2.04751094      -0.70837099      -0.71473694      -0.23714080
Au       6.15691095      -0.01595162       2.12025047       0.54439600       0.55614552      -0.48173928
Au       5.98376675       2.20654053      -0.04793461       1.76614175      -1.37786648       0.44711591
